 Entering Gaussian System, Link 0=g16
 Initial command:
 /cm/shared/apps/spack/cpu/opt/spack/linux-centos8-zen/gcc-8.3.1/gaussian-16.C.01-po5bqktfeugvmjyga3v7eigbecnokxng/g16/l1.exe "/scratch/jcuzick/job_48780647/Gau-2329487.inp" -scrdir="/scratch/jcuzick/job_48780647/"
 Entering Link 1 = /cm/shared/apps/spack/cpu/opt/spack/linux-centos8-zen/gcc-8.3.1/gaussian-16.C.01-po5bqktfeugvmjyga3v7eigbecnokxng/g16/l1.exe PID=   2329488.
  
 Copyright (c) 1988-2019, Gaussian, Inc.  All Rights Reserved.
  
 This is part of the Gaussian(R) 16 program.  It is based on
 the Gaussian(R) 09 system (copyright 2009, Gaussian, Inc.),
 the Gaussian(R) 03 system (copyright 2003, Gaussian, Inc.),
 the Gaussian(R) 98 system (copyright 1998, Gaussian, Inc.),
 the Gaussian(R) 94 system (copyright 1995, Gaussian, Inc.),
 the Gaussian 92(TM) system (copyright 1992, Gaussian, Inc.),
 the Gaussian 90(TM) system (copyright 1990, Gaussian, Inc.),
 the Gaussian 88(TM) system (copyright 1988, Gaussian, Inc.),
 the Gaussian 86(TM) system (copyright 1986, Carnegie Mellon
 University), and the Gaussian 82(TM) system (copyright 1983,
 Carnegie Mellon University). Gaussian is a federally registered
 trademark of Gaussian, Inc.
  
 This software contains proprietary and confidential information,
 including trade secrets, belonging to Gaussian, Inc.
  
 This software is provided under written license and may be
 used, copied, transmitted, or stored only in accord with that
 written license.
  
 The following legend is applicable only to US Government
 contracts under FAR:
  
                    RESTRICTED RIGHTS LEGEND
  
 Use, reproduction and disclosure by the US Government is
 subject to restrictions as set forth in subparagraphs (a)
 and (c) of the Commercial Computer Software - Restricted
 Rights clause in FAR 52.227-19.
  
 Gaussian, Inc.
 340 Quinnipiac St., Bldg. 40, Wallingford CT 06492
  
  
 ---------------------------------------------------------------
 Warning -- This program may not be used in any manner that
 competes with the business of Gaussian, Inc. or will provide
 assistance to any competitor of Gaussian, Inc.  The licensee
 of this program is prohibited from giving any competitor of
 Gaussian, Inc. access to this program.  By using this program,
 the user acknowledges that Gaussian, Inc. is engaged in the
 business of creating and licensing software in the field of
 computational chemistry and represents and warrants to the
 licensee that it is not a competitor of Gaussian, Inc. and that
 it will not use this program in any manner prohibited above.
 ---------------------------------------------------------------
  

 Cite this work as:
 Gaussian 16, Revision C.01,
 M. J. Frisch, G. W. Trucks, H. B. Schlegel, G. E. Scuseria, 
 M. A. Robb, J. R. Cheeseman, G. Scalmani, V. Barone, 
 G. A. Petersson, H. Nakatsuji, X. Li, M. Caricato, A. V. Marenich, 
 J. Bloino, B. G. Janesko, R. Gomperts, B. Mennucci, H. P. Hratchian, 
 J. V. Ortiz, A. F. Izmaylov, J. L. Sonnenberg, D. Williams-Young, 
 F. Ding, F. Lipparini, F. Egidi, J. Goings, B. Peng, A. Petrone, 
 T. Henderson, D. Ranasinghe, V. G. Zakrzewski, J. Gao, N. Rega, 
 G. Zheng, W. Liang, M. Hada, M. Ehara, K. Toyota, R. Fukuda, 
 J. Hasegawa, M. Ishida, T. Nakajima, Y. Honda, O. Kitao, H. Nakai, 
 T. Vreven, K. Throssell, J. A. Montgomery, Jr., J. E. Peralta, 
 F. Ogliaro, M. J. Bearpark, J. J. Heyd, E. N. Brothers, K. N. Kudin, 
 V. N. Staroverov, T. A. Keith, R. Kobayashi, J. Normand, 
 K. Raghavachari, A. P. Rendell, J. C. Burant, S. S. Iyengar, 
 J. Tomasi, M. Cossi, J. M. Millam, M. Klene, C. Adamo, R. Cammi, 
 J. W. Ochterski, R. L. Martin, K. Morokuma, O. Farkas, 
 J. B. Foresman, and D. J. Fox, Gaussian, Inc., Wallingford CT, 2019.
 
 ******************************************
 Gaussian 16:  ES64L-G16RevC.01  3-Jul-2019
                 5-May-2026 
 ******************************************
 %mem=16GB
 %nprocshared=16
 Will use up to   16 processors via shared memory.
 ----------------------------------------------------------------------
 # opt=(calcfc,ts,noeigen) freq=noraman ub3lyp/6-31g(d,p) nosymm guess=
 mix empiricaldispersion=gd3
 ----------------------------------------------------------------------
 1/5=1,10=4,11=1,18=20,26=3,38=1/1,3;
 2/9=110,12=2,15=1,17=6,18=5,40=1/2;
 3/5=1,6=6,7=101,11=2,25=1,30=1,71=2,74=-5,116=2,124=31,140=1/1,2,3;
 4/13=-1/1;
 5/5=2,38=5/2;
 8/6=4,10=90,11=11/1;
 11/6=1,8=1,9=11,15=111,16=1,31=1/1,2,10;
 10/6=1,13=1,31=1/2;
 6/7=2,8=2,9=2,10=2,28=1/1;
 7/10=1,25=1,30=1/1,2,3,16;
 1/5=1,10=4,11=1,18=20,26=3/3(2);
 2/9=110,15=1/2;
 99//99;
 2/9=110,15=1/2;
 3/5=1,6=6,7=101,11=2,25=1,30=1,71=1,74=-5,116=2,124=31/1,2,3;
 4/5=5,16=3,69=1/1;
 5/5=2,38=5/2;
 7/30=1/1,2,3,16;
 1/5=1,11=1,18=20,26=3/3(-5);
 2/9=110,15=1/2;
 6/7=2,8=2,9=2,10=2,19=2,28=1/1;
 99/9=1/99;
 --------
 CuL_subs
 --------
 Symbolic Z-matrix:
 Charge =  0 Multiplicity = 2
 C                     4.69028  -2.02757   1.77536 
 C                     3.86538  -1.83228   2.92507 
 C                     3.93229  -0.48241   0.50109 
 C                     2.75032  -2.65337   3.0756 
 C                     2.4092    0.62753  -0.64454 
 H                     1.44291   0.70169  -1.13031 
 C                     3.33883   1.62393  -0.6018 
 H                     3.27954   2.61615  -1.02724 
 S                     4.74469   1.07144   0.27679 
 N                     2.75812  -0.55516  -0.00776 
 O                     1.86634  -2.47096   4.11115 
 H                     2.04537  -1.62556   4.53965 
 C                     4.123    -0.68378   3.86486 
 H                     5.11216  -0.25217   3.6942 
 H                     3.39712   0.13015   3.72378 
 H                     4.0814   -0.9944    4.91708 
 C                     3.38851  -3.99674   1.14465 
 C                     2.48165  -3.73046   2.20203 
 C                     4.49138  -3.18237   0.96319 
 H                     5.18421  -3.37582   0.1505 
 C                     1.25973  -4.58747   2.40213 
 H                     0.6216   -4.19451   3.19261 
 H                     0.66941  -4.64929   1.48063 
 H                     1.53623  -5.61584   2.66848 
 C                     3.14431  -5.16678   0.22351 
 H                     3.0515   -6.10802   0.77738 
 H                     2.21301  -5.03734  -0.34053 
 H                     3.95755  -5.27706  -0.49803 
 H                     5.67747  -1.57169   1.78412 
 
 Add virtual bond connecting atoms C3         and C1         Dist= 4.05D+00.

 GradGradGradGradGradGradGradGradGradGradGradGradGradGradGradGradGradGrad
 Berny optimization.
 Initialization pass.
                           ----------------------------
                           !    Initial Parameters    !
                           ! (Angstroms and Degrees)  !
 --------------------------                            --------------------------
 ! Name  Definition              Value          Derivative Info.                !
 --------------------------------------------------------------------------------
 ! R1    R(1,2)                  1.4284         calculate D2E/DX2 analytically  !
 ! R2    R(1,3)                  2.1415         calculate D2E/DX2 analytically  !
 ! R3    R(1,19)                 1.4257         calculate D2E/DX2 analytically  !
 ! R4    R(1,29)                 1.0874         calculate D2E/DX2 analytically  !
 ! R5    R(2,4)                  1.3929         calculate D2E/DX2 analytically  !
 ! R6    R(2,13)                 1.5062         calculate D2E/DX2 analytically  !
 ! R7    R(3,9)                  1.7677         calculate D2E/DX2 analytically  !
 ! R8    R(3,10)                 1.2818         calculate D2E/DX2 analytically  !
 ! R9    R(4,11)                 1.3737         calculate D2E/DX2 analytically  !
 ! R10   R(4,18)                 1.4126         calculate D2E/DX2 analytically  !
 ! R11   R(5,6)                  1.0841         calculate D2E/DX2 analytically  !
 ! R12   R(5,7)                  1.3634         calculate D2E/DX2 analytically  !
 ! R13   R(5,10)                 1.3878         calculate D2E/DX2 analytically  !
 ! R14   R(7,8)                  1.0812         calculate D2E/DX2 analytically  !
 ! R15   R(7,9)                  1.7475         calculate D2E/DX2 analytically  !
 ! R16   R(11,12)                0.9645         calculate D2E/DX2 analytically  !
 ! R17   R(13,14)                1.0926         calculate D2E/DX2 analytically  !
 ! R18   R(13,15)                1.0997         calculate D2E/DX2 analytically  !
 ! R19   R(13,16)                1.0979         calculate D2E/DX2 analytically  !
 ! R20   R(17,18)                1.4182         calculate D2E/DX2 analytically  !
 ! R21   R(17,19)                1.3829         calculate D2E/DX2 analytically  !
 ! R22   R(17,25)                1.509          calculate D2E/DX2 analytically  !
 ! R23   R(18,21)                1.5059         calculate D2E/DX2 analytically  !
 ! R24   R(19,20)                1.0853         calculate D2E/DX2 analytically  !
 ! R25   R(21,22)                1.0893         calculate D2E/DX2 analytically  !
 ! R26   R(21,23)                1.0961         calculate D2E/DX2 analytically  !
 ! R27   R(21,24)                1.0977         calculate D2E/DX2 analytically  !
 ! R28   R(25,26)                1.096          calculate D2E/DX2 analytically  !
 ! R29   R(25,27)                1.0965         calculate D2E/DX2 analytically  !
 ! R30   R(25,28)                1.0928         calculate D2E/DX2 analytically  !
 ! A1    A(2,1,3)              100.1303         calculate D2E/DX2 analytically  !
 ! A2    A(2,1,19)             119.2527         calculate D2E/DX2 analytically  !
 ! A3    A(2,1,29)             117.417          calculate D2E/DX2 analytically  !
 ! A4    A(3,1,19)             101.3076         calculate D2E/DX2 analytically  !
 ! A5    A(3,1,29)              91.3543         calculate D2E/DX2 analytically  !
 ! A6    A(19,1,29)            118.0868         calculate D2E/DX2 analytically  !
 ! A7    A(1,2,4)              117.9489         calculate D2E/DX2 analytically  !
 ! A8    A(1,2,13)             120.5087         calculate D2E/DX2 analytically  !
 ! A9    A(4,2,13)             121.264          calculate D2E/DX2 analytically  !
 ! A10   A(1,3,9)              123.1673         calculate D2E/DX2 analytically  !
 ! A11   A(1,3,10)             121.3007         calculate D2E/DX2 analytically  !
 ! A12   A(9,3,10)             114.8677         calculate D2E/DX2 analytically  !
 ! A13   A(2,4,11)             121.2204         calculate D2E/DX2 analytically  !
 ! A14   A(2,4,18)             122.3366         calculate D2E/DX2 analytically  !
 ! A15   A(11,4,18)            116.4261         calculate D2E/DX2 analytically  !
 ! A16   A(6,5,7)              124.8778         calculate D2E/DX2 analytically  !
 ! A17   A(6,5,10)             119.2098         calculate D2E/DX2 analytically  !
 ! A18   A(7,5,10)             115.9125         calculate D2E/DX2 analytically  !
 ! A19   A(5,7,8)              128.3854         calculate D2E/DX2 analytically  !
 ! A20   A(5,7,9)              109.4666         calculate D2E/DX2 analytically  !
 ! A21   A(8,7,9)              122.1473         calculate D2E/DX2 analytically  !
 ! A22   A(3,9,7)               88.3941         calculate D2E/DX2 analytically  !
 ! A23   A(3,10,5)             111.3524         calculate D2E/DX2 analytically  !
 ! A24   A(4,11,12)            109.3803         calculate D2E/DX2 analytically  !
 ! A25   A(2,13,14)            111.0144         calculate D2E/DX2 analytically  !
 ! A26   A(2,13,15)            111.8034         calculate D2E/DX2 analytically  !
 ! A27   A(2,13,16)            112.0721         calculate D2E/DX2 analytically  !
 ! A28   A(14,13,15)           106.568          calculate D2E/DX2 analytically  !
 ! A29   A(14,13,16)           107.203          calculate D2E/DX2 analytically  !
 ! A30   A(15,13,16)           107.9001         calculate D2E/DX2 analytically  !
 ! A31   A(18,17,19)           119.8158         calculate D2E/DX2 analytically  !
 ! A32   A(18,17,25)           119.8159         calculate D2E/DX2 analytically  !
 ! A33   A(19,17,25)           120.3683         calculate D2E/DX2 analytically  !
 ! A34   A(4,18,17)            118.8564         calculate D2E/DX2 analytically  !
 ! A35   A(4,18,21)            120.4046         calculate D2E/DX2 analytically  !
 ! A36   A(17,18,21)           120.7361         calculate D2E/DX2 analytically  !
 ! A37   A(1,19,17)            120.8959         calculate D2E/DX2 analytically  !
 ! A38   A(1,19,20)            118.8078         calculate D2E/DX2 analytically  !
 ! A39   A(17,19,20)           120.1581         calculate D2E/DX2 analytically  !
 ! A40   A(18,21,22)           111.4995         calculate D2E/DX2 analytically  !
 ! A41   A(18,21,23)           110.9404         calculate D2E/DX2 analytically  !
 ! A42   A(18,21,24)           111.1629         calculate D2E/DX2 analytically  !
 ! A43   A(22,21,23)           108.3569         calculate D2E/DX2 analytically  !
 ! A44   A(22,21,24)           108.0266         calculate D2E/DX2 analytically  !
 ! A45   A(23,21,24)           106.6673         calculate D2E/DX2 analytically  !
 ! A46   A(17,25,26)           111.7825         calculate D2E/DX2 analytically  !
 ! A47   A(17,25,27)           111.0962         calculate D2E/DX2 analytically  !
 ! A48   A(17,25,28)           111.1534         calculate D2E/DX2 analytically  !
 ! A49   A(26,25,27)           106.8226         calculate D2E/DX2 analytically  !
 ! A50   A(26,25,28)           108.0606         calculate D2E/DX2 analytically  !
 ! A51   A(27,25,28)           107.7195         calculate D2E/DX2 analytically  !
 ! D1    D(3,1,2,4)             98.188          calculate D2E/DX2 analytically  !
 ! D2    D(3,1,2,13)           -75.8273         calculate D2E/DX2 analytically  !
 ! D3    D(19,1,2,4)           -10.9818         calculate D2E/DX2 analytically  !
 ! D4    D(19,1,2,13)          175.0029         calculate D2E/DX2 analytically  !
 ! D5    D(29,1,2,4)          -164.9355         calculate D2E/DX2 analytically  !
 ! D6    D(29,1,2,13)           21.0492         calculate D2E/DX2 analytically  !
 ! D7    D(2,1,3,9)            100.5681         calculate D2E/DX2 analytically  !
 ! D8    D(2,1,3,10)           -69.6066         calculate D2E/DX2 analytically  !
 ! D9    D(19,1,3,9)          -136.6151         calculate D2E/DX2 analytically  !
 ! D10   D(19,1,3,10)           53.2103         calculate D2E/DX2 analytically  !
 ! D11   D(29,1,3,9)           -17.6033         calculate D2E/DX2 analytically  !
 ! D12   D(29,1,3,10)          172.2221         calculate D2E/DX2 analytically  !
 ! D13   D(2,1,19,17)           10.3165         calculate D2E/DX2 analytically  !
 ! D14   D(2,1,19,20)         -173.9505         calculate D2E/DX2 analytically  !
 ! D15   D(3,1,19,17)          -98.2002         calculate D2E/DX2 analytically  !
 ! D16   D(3,1,19,20)           77.5328         calculate D2E/DX2 analytically  !
 ! D17   D(29,1,19,17)         164.0973         calculate D2E/DX2 analytically  !
 ! D18   D(29,1,19,20)         -20.1697         calculate D2E/DX2 analytically  !
 ! D19   D(1,2,4,11)          -175.979          calculate D2E/DX2 analytically  !
 ! D20   D(1,2,4,18)             5.5706         calculate D2E/DX2 analytically  !
 ! D21   D(13,2,4,11)           -2.0113         calculate D2E/DX2 analytically  !
 ! D22   D(13,2,4,18)          179.5383         calculate D2E/DX2 analytically  !
 ! D23   D(1,2,13,14)          -15.0795         calculate D2E/DX2 analytically  !
 ! D24   D(1,2,13,15)          103.7812         calculate D2E/DX2 analytically  !
 ! D25   D(1,2,13,16)         -134.9246         calculate D2E/DX2 analytically  !
 ! D26   D(4,2,13,14)          171.1061         calculate D2E/DX2 analytically  !
 ! D27   D(4,2,13,15)          -70.0332         calculate D2E/DX2 analytically  !
 ! D28   D(4,2,13,16)           51.261          calculate D2E/DX2 analytically  !
 ! D29   D(1,3,9,7)           -171.4323         calculate D2E/DX2 analytically  !
 ! D30   D(10,3,9,7)            -0.6804         calculate D2E/DX2 analytically  !
 ! D31   D(1,3,10,5)           171.8516         calculate D2E/DX2 analytically  !
 ! D32   D(9,3,10,5)             0.91           calculate D2E/DX2 analytically  !
 ! D33   D(2,4,11,12)           11.9531         calculate D2E/DX2 analytically  !
 ! D34   D(18,4,11,12)        -169.509          calculate D2E/DX2 analytically  !
 ! D35   D(2,4,18,17)            0.86           calculate D2E/DX2 analytically  !
 ! D36   D(2,4,18,21)         -179.7633         calculate D2E/DX2 analytically  !
 ! D37   D(11,4,18,17)        -177.6601         calculate D2E/DX2 analytically  !
 ! D38   D(11,4,18,21)           1.7166         calculate D2E/DX2 analytically  !
 ! D39   D(6,5,7,8)             -0.1649         calculate D2E/DX2 analytically  !
 ! D40   D(6,5,7,9)           -179.8532         calculate D2E/DX2 analytically  !
 ! D41   D(10,5,7,8)           179.9015         calculate D2E/DX2 analytically  !
 ! D42   D(10,5,7,9)             0.2132         calculate D2E/DX2 analytically  !
 ! D43   D(6,5,10,3)           179.3294         calculate D2E/DX2 analytically  !
 ! D44   D(7,5,10,3)            -0.7331         calculate D2E/DX2 analytically  !
 ! D45   D(5,7,9,3)              0.231          calculate D2E/DX2 analytically  !
 ! D46   D(8,7,9,3)           -179.4804         calculate D2E/DX2 analytically  !
 ! D47   D(19,17,18,4)          -1.8301         calculate D2E/DX2 analytically  !
 ! D48   D(19,17,18,21)        178.7953         calculate D2E/DX2 analytically  !
 ! D49   D(25,17,18,4)         178.195          calculate D2E/DX2 analytically  !
 ! D50   D(25,17,18,21)         -1.1796         calculate D2E/DX2 analytically  !
 ! D51   D(18,17,19,1)          -3.7851         calculate D2E/DX2 analytically  !
 ! D52   D(18,17,19,20)       -179.4608         calculate D2E/DX2 analytically  !
 ! D53   D(25,17,19,1)         176.1896         calculate D2E/DX2 analytically  !
 ! D54   D(25,17,19,20)          0.5139         calculate D2E/DX2 analytically  !
 ! D55   D(18,17,25,26)        -55.6864         calculate D2E/DX2 analytically  !
 ! D56   D(18,17,25,27)         63.5373         calculate D2E/DX2 analytically  !
 ! D57   D(18,17,25,28)       -176.5243         calculate D2E/DX2 analytically  !
 ! D58   D(19,17,25,26)        124.3388         calculate D2E/DX2 analytically  !
 ! D59   D(19,17,25,27)       -116.4375         calculate D2E/DX2 analytically  !
 ! D60   D(19,17,25,28)          3.5009         calculate D2E/DX2 analytically  !
 ! D61   D(4,18,21,22)           6.0982         calculate D2E/DX2 analytically  !
 ! D62   D(4,18,21,23)         126.9725         calculate D2E/DX2 analytically  !
 ! D63   D(4,18,21,24)        -114.5086         calculate D2E/DX2 analytically  !
 ! D64   D(17,18,21,22)       -174.5369         calculate D2E/DX2 analytically  !
 ! D65   D(17,18,21,23)        -53.6626         calculate D2E/DX2 analytically  !
 ! D66   D(17,18,21,24)         64.8563         calculate D2E/DX2 analytically  !
 --------------------------------------------------------------------------------
 Trust Radius=3.00D-01 FncErr=1.00D-07 GrdErr=1.00D-06 EigMax=2.50D+02 EigMin=1.00D-04
 Number of steps in this run=    157 maximum allowed number of steps=    174.
 Search for a saddle point of order  1.
 GradGradGradGradGradGradGradGradGradGradGradGradGradGradGradGradGradGrad

                          Input orientation:                          
 ---------------------------------------------------------------------
 Center     Atomic      Atomic             Coordinates (Angstroms)
 Number     Number       Type             X           Y           Z
 ---------------------------------------------------------------------
      1          6           0        4.690280   -2.027569    1.775360
      2          6           0        3.865376   -1.832282    2.925074
      3          6           0        3.932287   -0.482414    0.501088
      4          6           0        2.750321   -2.653366    3.075603
      5          6           0        2.409198    0.627533   -0.644539
      6          1           0        1.442911    0.701689   -1.130309
      7          6           0        3.338830    1.623932   -0.601803
      8          1           0        3.279542    2.616146   -1.027237
      9         16           0        4.744691    1.071441    0.276791
     10          7           0        2.758118   -0.555163   -0.007758
     11          8           0        1.866339   -2.470955    4.111151
     12          1           0        2.045367   -1.625561    4.539653
     13          6           0        4.123003   -0.683781    3.864864
     14          1           0        5.112156   -0.252165    3.694203
     15          1           0        3.397124    0.130147    3.723776
     16          1           0        4.081404   -0.994402    4.917077
     17          6           0        3.388509   -3.996737    1.144653
     18          6           0        2.481650   -3.730455    2.202026
     19          6           0        4.491380   -3.182367    0.963192
     20          1           0        5.184208   -3.375820    0.150502
     21          6           0        1.259729   -4.587471    2.402131
     22          1           0        0.621597   -4.194507    3.192615
     23          1           0        0.669406   -4.649292    1.480634
     24          1           0        1.536234   -5.615836    2.668480
     25          6           0        3.144309   -5.166781    0.223510
     26          1           0        3.051498   -6.108019    0.777383
     27          1           0        2.213009   -5.037344   -0.340530
     28          1           0        3.957554   -5.277057   -0.498029
     29          1           0        5.677466   -1.571687    1.784122
 ---------------------------------------------------------------------
                    Distance matrix (angstroms):
                    1          2          3          4          5
     1  C    0.000000
     2  C    1.428442   0.000000
     3  C    2.141454   2.775307   0.000000
     4  C    2.417787   1.392905   3.569062   0.000000
     5  C    4.255445   4.573104   2.205503   4.971933   0.000000
     6  H    5.141709   5.360548   3.203209   5.536733   1.084058
     7  C    4.561883   4.966037   2.450562   5.671414   1.363398
     8  H    5.604357   5.979337   3.516095   6.699338   2.204209
     9  S    3.442751   4.027183   1.767703   5.068042   2.549594
    10  N    3.013426   3.385049   1.281753   3.729562   1.387806
    11  O    3.691497   2.410566   4.610314   1.373702   5.701922
    12  H    3.846881   2.441727   4.601876   1.922703   5.664332
    13  C    2.548254   1.506198   3.375190   2.527143   4.999139
    14  H    2.648018   2.154713   3.411904   3.424426   5.186958
    15  H    3.181873   2.169865   3.323755   2.930261   4.506170
    16  H    3.362819   2.171817   4.448070   2.813356   6.029803
    17  C    2.443363   2.842915   3.613909   2.437314   5.054120
    18  C    2.821331   2.457754   3.943007   1.412601   5.205789
    19  C    1.425741   2.462436   2.795688   2.788083   4.629862
    20  H    2.168389   3.438034   3.172068   3.873237   4.935545
    21  C    4.326040   3.828045   5.254334   2.533020   6.148150
    22  H    4.822698   4.021665   5.655495   2.630641   6.416490
    23  H    4.809129   4.498464   5.382265   3.295126   5.948791
    24  H    4.860178   4.450396   6.065532   3.227380   7.121644
    25  C    3.827913   4.351697   4.758283   3.821900   5.904911
    26  H    4.509062   4.853545   5.700839   4.160186   6.913904
    27  H    4.435381   4.864865   4.940812   4.200240   5.676420
    28  H    4.032909   4.857222   4.897701   4.594781   6.105985
    29  H    1.087401   2.157163   2.424529   3.377296   4.627801
                    6          7          8          9         10
     6  H    0.000000
     7  C    2.173559   0.000000
     8  H    2.654992   1.081202   0.000000
     9  S    3.608102   1.747461   2.496651   0.000000
    10  N    2.137655   2.332074   3.371709   2.583269   0.000000
    11  O    6.141487   6.414691   7.367413   5.961191   4.629356
    12  H    6.158532   6.218265   7.106724   5.721203   4.725750
    13  C    5.835595   5.088377   5.961006   4.042471   4.108121
    14  H    6.135887   5.011995   5.820453   3.683160   4.397479
    15  H    5.263815   4.576617   5.363408   3.818858   3.847379
    16  H    6.812433   6.153465   7.000993   5.122491   5.118400
    17  C    5.570997   5.885958   6.961264   5.317785   3.683731
    18  C    5.641572   6.104562   7.165481   5.646777   3.878409
    19  C    5.363003   5.184408   6.249249   4.316271   3.293804
    20  H    5.680128   5.382277   6.396755   4.470711   3.723851
    21  C    6.362932   7.206095   8.229964   6.977486   4.930745
    22  H    6.582930   7.458900   8.441375   7.296036   5.296408
    23  H    6.004026   7.128514   8.117193   7.126287   4.831141
    24  H    7.372288   8.146063   9.190374   7.793205   5.853688
    25  C    6.258316   6.843447   7.883946   6.440456   4.633535
    26  H    7.252514   7.859248   8.911774   7.393385   5.615757
    27  H    5.844083   6.760794   7.757897   6.641367   4.527453
    28  H    6.516795   6.929447   7.939925   6.443862   4.896457
    29  H    5.620819   4.623185   5.584955   3.182490   3.573059
                   11         12         13         14         15
    11  O    0.000000
    12  H    0.964550   0.000000
    13  C    2.889149   2.378836   0.000000
    14  H    3.953758   3.464996   1.092630   0.000000
    15  H    3.042876   2.361231   1.099675   1.757376   0.000000
    16  H    2.781409   2.164776   1.097893   1.763175   1.776743
    17  C    3.666759   4.353450   4.349104   4.846956   4.866531
    18  C    2.368482   3.175755   3.839439   4.609192   4.249478
    19  C    4.160119   4.604096   3.846860   4.053377   4.448704
    20  H    5.245358   5.672775   4.708473   4.724429   5.315427
    21  C    2.787179   3.736193   5.057343   5.941845   5.345196
    22  H    2.315971   3.231272   5.003695   5.996563   5.166073
    23  H    3.619036   4.515951   5.773834   6.631187   5.942657
    24  H    3.475708   4.436530   5.696304   6.527503   6.131303
    25  C    4.900453   5.690079   5.857866   6.330212   6.353993
    26  H    5.074135   5.937963   6.332695   6.858949   6.907634
    27  H    5.150145   5.956891   6.347198   6.897975   6.680095
    28  H    5.787221   6.509080   6.337223   6.645108   6.882992
    29  H    4.555045   4.559386   2.744853   2.389377   3.443611
                   16         17         18         19         20
    16  H    0.000000
    17  C    4.870863   0.000000
    18  C    4.173332   1.418216   0.000000
    19  C    4.537453   1.382914   2.423659   0.000000
    20  H    5.441283   2.144390   3.411501   1.085311   0.000000
    21  C    5.215069   2.542031   1.505858   3.806367   4.683958
    22  H    5.018437   3.448052   2.157871   4.579299   5.544558
    23  H    6.067050   2.816422   2.156130   4.126391   4.875902
    24  H    5.735131   2.893865   2.160105   4.190784   4.966447
    25  C    6.349525   1.509020   2.533116   2.509906   2.715522
    26  H    6.659343   2.169326   2.829690   3.266072   3.522264
    27  H    6.890480   2.161118   2.871362   3.214281   3.439447
    28  H    6.905059   2.159036   3.443917   2.609188   2.353715
    29  H    3.563156   3.395455   3.879196   2.162179   2.483327
                   21         22         23         24         25
    21  C    0.000000
    22  H    1.089265   0.000000
    23  H    1.096111   1.772003   0.000000
    24  H    1.097694   1.769592   1.759709   0.000000
    25  C    2.938304   4.015592   2.823703   2.960648   0.000000
    26  H    2.856975   3.924193   2.880418   2.472755   1.096047
    27  H    2.938251   3.965612   2.418663   3.137964   1.096456
    28  H    4.020537   5.091304   3.888588   4.000543   1.092770
    29  H    5.384542   5.867269   5.885951   5.855513   4.666594
                   26         27         28         29
    26  H    0.000000
    27  H    1.760437   0.000000
    28  H    1.771471   1.767966   0.000000
    29  H    5.337372   5.341104   4.679324   0.000000
 Symmetry turned off by external request.
 Stoichiometry    C12H14NOS(2)
 Framework group  C1[X(C12H14NOS)]
 Deg. of freedom    81
 Full point group                 C1      NOp   1
 Rotational constants (GHZ):           0.8462165           0.3590234           0.3164973
 Standard basis: 6-31G(d,p) (6D, 7F)
   299 basis functions,   542 primitive gaussians,   299 cartesian basis functions
    59 alpha electrons       58 beta electrons
       nuclear repulsion energy      1070.9526698868 Hartrees.
 NAtoms=   29 NActive=   29 NUniq=   29 SFac= 1.00D+00 NAtFMM=   60 NAOKFM=F Big=F
 Integral buffers will be    131072 words long.
 Raffenetti 2 integral format.
 Two-electron integral symmetry is turned off.
 Nuclear repulsion after empirical dispersion term =     1070.9253519775 Hartrees.
 One-electron integrals computed using PRISM.
 NBasis=   299 RedAO= T EigKep=  4.38D-04  NBF=   299
 NBsUse=   299 1.00D-06 EigRej= -1.00D+00 NBFU=   299
 ExpMin= 1.17D-01 ExpMax= 2.19D+04 ExpMxC= 3.30D+03 IAcc=3 IRadAn=         5 AccDes= 0.00D+00
 Harris functional with IExCor=  402 and IRadAn=       5 diagonalized for initial guess.
 HarFok:  IExCor=  402 AccDes= 0.00D+00 IRadAn=         5 IDoV= 1 UseB2=F ITyADJ=14
 ICtDFT=  3500011 ScaDFX=  1.000000  1.000000  1.000000  1.000000
 FoFCou: FMM=F IPFlag=           0 FMFlag=      100000 FMFlg1=           0
         NFxFlg=           0 DoJE=T BraDBF=F KetDBF=T FulRan=T
         wScrn=  0.000000 ICntrl=       500 IOpCl=  0 I1Cent=   200000004 NGrid=           0
         NMat0=    1 NMatS0=      1 NMatT0=    0 NMatD0=    1 NMtDS0=    0 NMtDT0=    0
 Symmetry not used in FoFCou.
 Mixing orbitals, IMix= 1 IMixAn=  0 NRI=1 NE=   59 Coef=  7.07106781D-01  7.07106781D-01
 Mixing orbitals, IMix= 1 IMixAn=  0 NRI=1 NE=   58 Coef= -7.07106781D-01  7.07106781D-01
 Initial guess <Sx>= 0.0000 <Sy>= 0.0000 <Sz>= 0.5000 <S**2>= 1.0000 S= 0.6180
 Requested convergence on RMS density matrix=1.00D-08 within 128 cycles.
 Requested convergence on MAX density matrix=1.00D-06.
 Requested convergence on             energy=1.00D-06.
 No special actions if energy rises.
 Integral accuracy reduced to 1.0D-05 until final iterations.
 Initial convergence to 1.0D-05 achieved.  Increase integral accuracy.
 SCF Done:  E(UB3LYP) =  -993.825645138     A.U. after   23 cycles
            NFock= 23  Conv=0.84D-08     -V/T= 2.0071
 <Sx>= 0.0000 <Sy>= 0.0000 <Sz>= 0.5000 <S**2>= 0.7837 S= 0.5167
 <L.S>= 0.000000000000E+00
 Annihilation of the first spin contaminant:
 S**2 before annihilation     0.7837,   after     0.7508
 DoSCS=F DFT=T ScalE2(SS,OS)=  1.000000  1.000000
 Range of M.O.s used for correlation:     1   299
 NBasis=   299 NAE=    59 NBE=    58 NFC=     0 NFV=     0
 NROrb=    299 NOA=    59 NOB=    58 NVA=   240 NVB=   241
 Symmetrizing basis deriv contribution to polar:
 IMax=3 JMax=2 DiffMx= 0.00D+00
 G2DrvN: will do    30 centers at a time, making    1 passes.
 Calling FoFCou, ICntrl=  3107 FMM=F I1Cent=   0 AccDes= 0.00D+00.
 End of G2Drv F.D. properties file   721 does not exist.
 End of G2Drv F.D. properties file   722 does not exist.
 End of G2Drv F.D. properties file   788 does not exist.
          IDoAtm=11111111111111111111111111111
          Differentiating once with respect to nuclear coordinates.
 Keep R1 and R2 ints in memory in canonical form, NReq=2029634085.
 CalDSu:  requested number of processors reduced to:  13 ShMem   1 Linda.
          There are    90 degrees of freedom in the 1st order CPHF.  IDoFFX=6 NUNeed=     0.
     84 vectors produced by pass  0 Test12= 3.13D-14 1.11D-09 XBig12= 3.27D-01 2.23D-01.
 AX will form    84 AO Fock derivatives at one time.
 CalDSu:  requested number of processors reduced to:  13 ShMem   1 Linda.
     84 vectors produced by pass  1 Test12= 3.13D-14 1.11D-09 XBig12= 8.12D-02 5.65D-02.
 CalDSu:  requested number of processors reduced to:  13 ShMem   1 Linda.
     84 vectors produced by pass  2 Test12= 3.13D-14 1.11D-09 XBig12= 2.34D-03 8.53D-03.
 CalDSu:  requested number of processors reduced to:  13 ShMem   1 Linda.
     84 vectors produced by pass  3 Test12= 3.13D-14 1.11D-09 XBig12= 3.17D-05 9.15D-04.
 CalDSu:  requested number of processors reduced to:  13 ShMem   1 Linda.
     84 vectors produced by pass  4 Test12= 3.13D-14 1.11D-09 XBig12= 3.00D-07 7.80D-05.
 CalDSu:  requested number of processors reduced to:  13 ShMem   1 Linda.
     84 vectors produced by pass  5 Test12= 3.13D-14 1.11D-09 XBig12= 1.51D-09 3.10D-06.
 CalDSu:  requested number of processors reduced to:  13 ShMem   1 Linda.
     58 vectors produced by pass  6 Test12= 3.13D-14 1.11D-09 XBig12= 6.62D-12 2.26D-07.
     19 vectors produced by pass  7 Test12= 3.13D-14 1.11D-09 XBig12= 2.41D-14 1.08D-08.
 InvSVY:  IOpt=1 It=  1 EMax= 5.00D-16
 Solved reduced A of dimension   581 with    90 vectors.
 End of Minotr F.D. properties file   721 does not exist.
 End of Minotr F.D. properties file   722 does not exist.
 End of Minotr F.D. properties file   788 does not exist.

 **********************************************************************

            Population analysis using the SCF Density.

 **********************************************************************

 Alpha  occ. eigenvalues --  -88.90240 -19.17442 -14.32395 -10.24116 -10.24034
 Alpha  occ. eigenvalues --  -10.21341 -10.21112 -10.21018 -10.19537 -10.19465
 Alpha  occ. eigenvalues --  -10.19457 -10.19148 -10.18212 -10.17978 -10.17520
 Alpha  occ. eigenvalues --   -7.96383  -5.92804  -5.92430  -5.92069  -1.05454
 Alpha  occ. eigenvalues --   -0.94899  -0.85591  -0.79468  -0.78366  -0.75716
 Alpha  occ. eigenvalues --   -0.72625  -0.71976  -0.68623  -0.65473  -0.60054
 Alpha  occ. eigenvalues --   -0.58526  -0.57729  -0.52472  -0.51649  -0.48973
 Alpha  occ. eigenvalues --   -0.48639  -0.46684  -0.44213  -0.42922  -0.42463
 Alpha  occ. eigenvalues --   -0.41035  -0.40797  -0.39652  -0.39466  -0.39411
 Alpha  occ. eigenvalues --   -0.39181  -0.38013  -0.37414  -0.36659  -0.35486
 Alpha  occ. eigenvalues --   -0.35239  -0.33903  -0.33072  -0.28426  -0.27208
 Alpha  occ. eigenvalues --   -0.25563  -0.24023  -0.22021  -0.17075
 Alpha virt. eigenvalues --   -0.01280   0.00970   0.02308   0.02972   0.06334
 Alpha virt. eigenvalues --    0.06913   0.10137   0.10510   0.12248   0.12986
 Alpha virt. eigenvalues --    0.13629   0.13999   0.14304   0.14504   0.16872
 Alpha virt. eigenvalues --    0.17453   0.17794   0.18056   0.18426   0.20429
 Alpha virt. eigenvalues --    0.21407   0.24513   0.25082   0.25664   0.25820
 Alpha virt. eigenvalues --    0.26848   0.28168   0.31353   0.32858   0.35490
 Alpha virt. eigenvalues --    0.36166   0.36806   0.37950   0.38406   0.40498
 Alpha virt. eigenvalues --    0.42871   0.46424   0.49800   0.51163   0.51921
 Alpha virt. eigenvalues --    0.52309   0.52874   0.53378   0.54000   0.55049
 Alpha virt. eigenvalues --    0.56020   0.56611   0.58102   0.58538   0.59179
 Alpha virt. eigenvalues --    0.59739   0.60842   0.62772   0.63696   0.64814
 Alpha virt. eigenvalues --    0.65881   0.67332   0.68171   0.69309   0.72853
 Alpha virt. eigenvalues --    0.73631   0.74292   0.75463   0.76401   0.76887
 Alpha virt. eigenvalues --    0.77652   0.78250   0.78568   0.80972   0.81213
 Alpha virt. eigenvalues --    0.81581   0.82935   0.83580   0.84732   0.85079
 Alpha virt. eigenvalues --    0.85683   0.86082   0.86896   0.87795   0.89172
 Alpha virt. eigenvalues --    0.89781   0.91156   0.91656   0.92284   0.93090
 Alpha virt. eigenvalues --    0.94072   0.95358   0.97349   0.98952   0.99561
 Alpha virt. eigenvalues --    1.00845   1.01451   1.03124   1.04278   1.05322
 Alpha virt. eigenvalues --    1.07813   1.09981   1.11536   1.13933   1.18127
 Alpha virt. eigenvalues --    1.21076   1.24316   1.25600   1.27154   1.29030
 Alpha virt. eigenvalues --    1.30295   1.30705   1.32974   1.33414   1.34299
 Alpha virt. eigenvalues --    1.34633   1.38264   1.39537   1.40732   1.42122
 Alpha virt. eigenvalues --    1.47731   1.54057   1.56589   1.58882   1.59484
 Alpha virt. eigenvalues --    1.64545   1.65755   1.68250   1.68775   1.71846
 Alpha virt. eigenvalues --    1.73009   1.74291   1.75858   1.76670   1.77968
 Alpha virt. eigenvalues --    1.79313   1.81467   1.84043   1.85269   1.85844
 Alpha virt. eigenvalues --    1.87072   1.89105   1.91062   1.92639   1.93507
 Alpha virt. eigenvalues --    1.94847   1.95174   1.97626   2.00835   2.02300
 Alpha virt. eigenvalues --    2.03584   2.04999   2.05880   2.07192   2.08764
 Alpha virt. eigenvalues --    2.09270   2.10906   2.11665   2.12504   2.13259
 Alpha virt. eigenvalues --    2.13987   2.15418   2.15715   2.18705   2.19823
 Alpha virt. eigenvalues --    2.21740   2.22569   2.25824   2.26440   2.29355
 Alpha virt. eigenvalues --    2.30826   2.32125   2.34022   2.34911   2.36577
 Alpha virt. eigenvalues --    2.37595   2.39154   2.41433   2.42901   2.43207
 Alpha virt. eigenvalues --    2.45683   2.46608   2.48432   2.50405   2.51893
 Alpha virt. eigenvalues --    2.52285   2.54181   2.54997   2.57061   2.58152
 Alpha virt. eigenvalues --    2.59286   2.61586   2.65444   2.67598   2.68389
 Alpha virt. eigenvalues --    2.70254   2.70850   2.72118   2.72931   2.75327
 Alpha virt. eigenvalues --    2.77644   2.80134   2.83148   2.83881   2.85236
 Alpha virt. eigenvalues --    2.85895   2.87522   2.89162   2.91120   2.94861
 Alpha virt. eigenvalues --    2.99582   3.07491   3.11299   3.11333   3.17928
 Alpha virt. eigenvalues --    3.18511   3.19991   3.24764   3.25452   3.31671
 Alpha virt. eigenvalues --    3.34737   3.41673   3.41896   3.45828   3.45985
 Alpha virt. eigenvalues --    3.47128   3.49410   3.51796   3.60495   3.69067
 Alpha virt. eigenvalues --    3.94333   4.02584   4.08367   4.13617   4.14926
 Alpha virt. eigenvalues --    4.25548   4.30857   4.36143   4.41735   4.48210
 Alpha virt. eigenvalues --    4.49928   4.50664   4.59715   4.61321   4.85795
  Beta  occ. eigenvalues --  -88.90180 -19.17486 -14.32360 -10.24282 -10.22927
  Beta  occ. eigenvalues --  -10.21240 -10.21233 -10.21038 -10.19482 -10.19322
  Beta  occ. eigenvalues --  -10.19185 -10.19035 -10.17968 -10.17870 -10.17546
  Beta  occ. eigenvalues --   -7.96316  -5.92690  -5.92328  -5.92039  -1.05551
  Beta  occ. eigenvalues --   -0.94533  -0.85192  -0.79096  -0.78089  -0.75309
  Beta  occ. eigenvalues --   -0.72432  -0.71496  -0.68596  -0.65304  -0.59847
  Beta  occ. eigenvalues --   -0.58142  -0.57387  -0.51679  -0.51388  -0.48795
  Beta  occ. eigenvalues --   -0.48229  -0.46426  -0.43796  -0.42688  -0.42215
  Beta  occ. eigenvalues --   -0.40953  -0.40418  -0.39612  -0.39365  -0.39232
  Beta  occ. eigenvalues --   -0.38945  -0.38007  -0.37331  -0.36524  -0.35323
  Beta  occ. eigenvalues --   -0.33946  -0.33783  -0.32915  -0.27257  -0.27161
  Beta  occ. eigenvalues --   -0.24297  -0.23306  -0.21009
  Beta virt. eigenvalues --   -0.08440  -0.00570   0.02191   0.02956   0.03632
  Beta virt. eigenvalues --    0.06518   0.07269   0.10172   0.10836   0.12716
  Beta virt. eigenvalues --    0.13102   0.13778   0.14239   0.14561   0.14611
  Beta virt. eigenvalues --    0.16942   0.17500   0.17856   0.18219   0.18721
  Beta virt. eigenvalues --    0.20487   0.21509   0.24777   0.25407   0.25828
  Beta virt. eigenvalues --    0.26218   0.27084   0.28654   0.31529   0.32985
  Beta virt. eigenvalues --    0.35599   0.36223   0.37044   0.38286   0.38871
  Beta virt. eigenvalues --    0.40807   0.43069   0.46802   0.49890   0.51544
  Beta virt. eigenvalues --    0.52231   0.52798   0.53206   0.54043   0.54150
  Beta virt. eigenvalues --    0.55232   0.56199   0.57014   0.58316   0.58842
  Beta virt. eigenvalues --    0.59620   0.60073   0.60919   0.62935   0.63863
  Beta virt. eigenvalues --    0.65587   0.66397   0.67670   0.68278   0.69772
  Beta virt. eigenvalues --    0.73052   0.73921   0.74554   0.75640   0.76622
  Beta virt. eigenvalues --    0.77064   0.77791   0.78381   0.78922   0.81233
  Beta virt. eigenvalues --    0.81509   0.81813   0.83148   0.83920   0.84840
  Beta virt. eigenvalues --    0.85248   0.85987   0.86228   0.86995   0.87843
  Beta virt. eigenvalues --    0.89322   0.89853   0.91386   0.91892   0.92379
  Beta virt. eigenvalues --    0.93177   0.94486   0.95644   0.97736   0.99025
  Beta virt. eigenvalues --    0.99731   1.01025   1.01805   1.03312   1.04473
  Beta virt. eigenvalues --    1.05533   1.07927   1.10230   1.11672   1.14289
  Beta virt. eigenvalues --    1.18295   1.21271   1.24647   1.25911   1.27521
  Beta virt. eigenvalues --    1.29384   1.30632   1.30938   1.33236   1.33771
  Beta virt. eigenvalues --    1.34587   1.34785   1.38610   1.39878   1.40910
  Beta virt. eigenvalues --    1.42291   1.48658   1.55126   1.56989   1.58952
  Beta virt. eigenvalues --    1.59632   1.64696   1.65985   1.68475   1.69133
  Beta virt. eigenvalues --    1.72169   1.73311   1.74684   1.76230   1.76833
  Beta virt. eigenvalues --    1.78361   1.79450   1.81695   1.84512   1.85558
  Beta virt. eigenvalues --    1.86620   1.87558   1.89476   1.91569   1.93076
  Beta virt. eigenvalues --    1.93954   1.95188   1.95492   1.98051   2.01058
  Beta virt. eigenvalues --    2.02530   2.03726   2.05048   2.06014   2.07314
  Beta virt. eigenvalues --    2.08868   2.09383   2.11106   2.11811   2.12564
  Beta virt. eigenvalues --    2.13348   2.14120   2.15596   2.15877   2.18905
  Beta virt. eigenvalues --    2.19850   2.22442   2.23764   2.26222   2.27838
  Beta virt. eigenvalues --    2.29717   2.31042   2.32582   2.34192   2.35253
  Beta virt. eigenvalues --    2.37142   2.37883   2.39204   2.41687   2.43004
  Beta virt. eigenvalues --    2.43510   2.46081   2.46882   2.48807   2.50711
  Beta virt. eigenvalues --    2.52186   2.52674   2.54563   2.55453   2.57286
  Beta virt. eigenvalues --    2.58340   2.59603   2.61752   2.65645   2.67756
  Beta virt. eigenvalues --    2.68598   2.70405   2.71071   2.72246   2.73131
  Beta virt. eigenvalues --    2.75503   2.77767   2.80296   2.83271   2.84530
  Beta virt. eigenvalues --    2.85307   2.86069   2.87680   2.89312   2.91663
  Beta virt. eigenvalues --    2.94960   2.99819   3.07651   3.11389   3.11571
  Beta virt. eigenvalues --    3.18060   3.18562   3.20134   3.24817   3.25572
  Beta virt. eigenvalues --    3.31806   3.34873   3.41782   3.41963   3.45887
  Beta virt. eigenvalues --    3.46004   3.47146   3.49438   3.51819   3.60618
  Beta virt. eigenvalues --    3.69221   3.94644   4.02782   4.08639   4.14310
  Beta virt. eigenvalues --    4.15176   4.26068   4.31481   4.36978   4.41974
  Beta virt. eigenvalues --    4.48255   4.49989   4.50734   4.59596   4.61443
  Beta virt. eigenvalues --    4.86056
          Condensed to atoms (all electrons):
               1          2          3          4          5          6
     1  C    5.030249   0.441421   0.082281   0.027326   0.001242  -0.000013
     2  C    0.441421   5.024824  -0.028870   0.436968  -0.000115   0.000002
     3  C    0.082281  -0.028870   5.408427  -0.008355  -0.089371   0.007874
     4  C    0.027326   0.436968  -0.008355   4.753372  -0.000060   0.000004
     5  C    0.001242  -0.000115  -0.089371  -0.000060   4.751320   0.382151
     6  H   -0.000013   0.000002   0.007874   0.000004   0.382151   0.602702
     7  C    0.000254   0.000048  -0.050162   0.000007   0.565421  -0.057346
     8  H   -0.000003   0.000001   0.003404   0.000000  -0.019164  -0.001033
     9  S   -0.013198  -0.000025   0.224320   0.000058  -0.105673   0.005246
    10  N   -0.016233  -0.000932   0.502667   0.001396   0.418505  -0.043652
    11  O    0.003745  -0.083861   0.000006   0.285427  -0.000000  -0.000000
    12  H    0.000213  -0.021139  -0.000010  -0.027347  -0.000000   0.000000
    13  C   -0.060553   0.331630   0.002407  -0.048594   0.000010  -0.000000
    14  H   -0.002582  -0.025200  -0.000570   0.003150  -0.000003   0.000000
    15  H   -0.001904  -0.034372   0.001949  -0.003919   0.000037  -0.000001
    16  H    0.003037  -0.031580   0.000088  -0.003702  -0.000001  -0.000000
    17  C   -0.007621  -0.041848  -0.005309   0.007780  -0.000031   0.000004
    18  C   -0.054265  -0.054530   0.001834   0.440208   0.000062  -0.000002
    19  C    0.403525  -0.020543  -0.020346  -0.070873  -0.000078   0.000002
    20  H   -0.044348   0.003916   0.001301   0.000873   0.000003  -0.000000
    21  C   -0.000408   0.009698   0.000011  -0.057434   0.000000  -0.000000
    22  H   -0.000027   0.000403  -0.000000  -0.008315  -0.000000   0.000000
    23  H   -0.000021  -0.000080  -0.000002   0.001667  -0.000000   0.000000
    24  H    0.000071  -0.000293   0.000000   0.000683   0.000000  -0.000000
    25  C    0.008345  -0.000305  -0.000037   0.009107  -0.000001   0.000000
    26  H   -0.000153   0.000001  -0.000003  -0.000067  -0.000000   0.000000
    27  H   -0.000312   0.000068   0.000016  -0.000300   0.000000  -0.000000
    28  H    0.000144   0.000000  -0.000002  -0.000139   0.000000  -0.000000
    29  H    0.368661  -0.039669  -0.028699   0.004355  -0.000088   0.000001
               7          8          9         10         11         12
     1  C    0.000254  -0.000003  -0.013198  -0.016233   0.003745   0.000213
     2  C    0.000048   0.000001  -0.000025  -0.000932  -0.083861  -0.021139
     3  C   -0.050162   0.003404   0.224320   0.502667   0.000006  -0.000010
     4  C    0.000007   0.000000   0.000058   0.001396   0.285427  -0.027347
     5  C    0.565421  -0.019164  -0.105673   0.418505  -0.000000  -0.000000
     6  H   -0.057346  -0.001033   0.005246  -0.043652  -0.000000   0.000000
     7  C    5.231792   0.357383   0.319862  -0.061443  -0.000000   0.000000
     8  H    0.357383   0.560384  -0.032847   0.004311   0.000000   0.000000
     9  S    0.319862  -0.032847  15.485848  -0.088355  -0.000000   0.000000
    10  N   -0.061443   0.004311  -0.088355   6.665089  -0.000019  -0.000000
    11  O   -0.000000   0.000000  -0.000000  -0.000019   8.129785   0.297982
    12  H    0.000000   0.000000   0.000000  -0.000000   0.297982   0.404351
    13  C   -0.000033  -0.000000   0.000725  -0.000386  -0.009395   0.014013
    14  H   -0.000003   0.000000   0.000971   0.000019   0.000363  -0.000364
    15  H   -0.000057  -0.000001   0.000430   0.000271   0.000281   0.002607
    16  H   -0.000000   0.000000   0.000028   0.000000   0.002649   0.002482
    17  C    0.000001   0.000000   0.000053   0.001812   0.003086  -0.000038
    18  C   -0.000002  -0.000000  -0.000043   0.000580  -0.060523   0.007187
    19  C    0.000007   0.000000   0.001590  -0.000736   0.000080  -0.000049
    20  H   -0.000003  -0.000000   0.000063  -0.000048   0.000002  -0.000000
    21  C   -0.000000  -0.000000  -0.000000  -0.000023  -0.011255   0.000044
    22  H    0.000000   0.000000   0.000000  -0.000000   0.011103  -0.000312
    23  H    0.000000   0.000000   0.000000   0.000002   0.000309  -0.000003
    24  H   -0.000000  -0.000000  -0.000000   0.000000   0.000464  -0.000011
    25  C   -0.000000   0.000000   0.000001  -0.000081  -0.000045   0.000004
    26  H    0.000000   0.000000   0.000000   0.000001   0.000000   0.000000
    27  H   -0.000000  -0.000000  -0.000000   0.000030  -0.000001  -0.000000
    28  H    0.000000   0.000000  -0.000000  -0.000000   0.000000  -0.000000
    29  H    0.000001   0.000001   0.002838   0.001321  -0.000053  -0.000014
              13         14         15         16         17         18
     1  C   -0.060553  -0.002582  -0.001904   0.003037  -0.007621  -0.054265
     2  C    0.331630  -0.025200  -0.034372  -0.031580  -0.041848  -0.054530
     3  C    0.002407  -0.000570   0.001949   0.000088  -0.005309   0.001834
     4  C   -0.048594   0.003150  -0.003919  -0.003702   0.007780   0.440208
     5  C    0.000010  -0.000003   0.000037  -0.000001  -0.000031   0.000062
     6  H   -0.000000   0.000000  -0.000001  -0.000000   0.000004  -0.000002
     7  C   -0.000033  -0.000003  -0.000057  -0.000000   0.000001  -0.000002
     8  H   -0.000000   0.000000  -0.000001   0.000000   0.000000  -0.000000
     9  S    0.000725   0.000971   0.000430   0.000028   0.000053  -0.000043
    10  N   -0.000386   0.000019   0.000271   0.000000   0.001812   0.000580
    11  O   -0.009395   0.000363   0.000281   0.002649   0.003086  -0.060523
    12  H    0.014013  -0.000364   0.002607   0.002482  -0.000038   0.007187
    13  C    5.069920   0.373620   0.374213   0.363932   0.000437   0.007534
    14  H    0.373620   0.573601  -0.028094  -0.023804   0.000006  -0.000157
    15  H    0.374213  -0.028094   0.597480  -0.041278  -0.000008  -0.000100
    16  H    0.363932  -0.023804  -0.041278   0.613462   0.000048  -0.000174
    17  C    0.000437   0.000006  -0.000008   0.000048   4.709231   0.511019
    18  C    0.007534  -0.000157  -0.000100  -0.000174   0.511019   4.927470
    19  C    0.006303   0.000153  -0.000034  -0.000234   0.537152  -0.004898
    20  H   -0.000179  -0.000009   0.000004   0.000002  -0.032500   0.004982
    21  C   -0.000184   0.000002   0.000003  -0.000001  -0.074596   0.349172
    22  H   -0.000004  -0.000000  -0.000000  -0.000000   0.004000  -0.024166
    23  H    0.000002  -0.000000  -0.000000   0.000000  -0.006754  -0.027829
    24  H    0.000002  -0.000000   0.000000  -0.000000  -0.003863  -0.026200
    25  C    0.000002  -0.000000  -0.000000   0.000000   0.367114  -0.068613
    26  H   -0.000000  -0.000000   0.000000  -0.000000  -0.025601  -0.006669
    27  H    0.000000   0.000000  -0.000000   0.000000  -0.024909  -0.004314
    28  H   -0.000000  -0.000000   0.000000  -0.000000  -0.027116   0.004271
    29  H   -0.009782   0.005385  -0.000071   0.000181   0.003694   0.000740
              19         20         21         22         23         24
     1  C    0.403525  -0.044348  -0.000408  -0.000027  -0.000021   0.000071
     2  C   -0.020543   0.003916   0.009698   0.000403  -0.000080  -0.000293
     3  C   -0.020346   0.001301   0.000011  -0.000000  -0.000002   0.000000
     4  C   -0.070873   0.000873  -0.057434  -0.008315   0.001667   0.000683
     5  C   -0.000078   0.000003   0.000000  -0.000000  -0.000000   0.000000
     6  H    0.000002  -0.000000  -0.000000   0.000000   0.000000  -0.000000
     7  C    0.000007  -0.000003  -0.000000   0.000000   0.000000  -0.000000
     8  H    0.000000  -0.000000  -0.000000   0.000000   0.000000  -0.000000
     9  S    0.001590   0.000063  -0.000000   0.000000   0.000000  -0.000000
    10  N   -0.000736  -0.000048  -0.000023  -0.000000   0.000002   0.000000
    11  O    0.000080   0.000002  -0.011255   0.011103   0.000309   0.000464
    12  H   -0.000049  -0.000000   0.000044  -0.000312  -0.000003  -0.000011
    13  C    0.006303  -0.000179  -0.000184  -0.000004   0.000002   0.000002
    14  H    0.000153  -0.000009   0.000002  -0.000000  -0.000000  -0.000000
    15  H   -0.000034   0.000004   0.000003  -0.000000  -0.000000   0.000000
    16  H   -0.000234   0.000002  -0.000001  -0.000000   0.000000  -0.000000
    17  C    0.537152  -0.032500  -0.074596   0.004000  -0.006754  -0.003863
    18  C   -0.004898   0.004982   0.349172  -0.024166  -0.027829  -0.026200
    19  C    4.994187   0.361460   0.009176  -0.000148   0.000016  -0.000274
    20  H    0.361460   0.631127  -0.000169   0.000002  -0.000002  -0.000003
    21  C    0.009176  -0.000169   5.053486   0.378106   0.372571   0.367451
    22  H   -0.000148   0.000002   0.378106   0.555623  -0.026235  -0.027478
    23  H    0.000016  -0.000002   0.372571  -0.026235   0.597565  -0.035606
    24  H   -0.000274  -0.000003   0.367451  -0.027478  -0.035606   0.603111
    25  C   -0.068022  -0.011193  -0.018927   0.000183   0.002311   0.001872
    26  H    0.001154   0.000169   0.002507   0.000006  -0.001187   0.003234
    27  H    0.000506   0.000226   0.001673   0.000012   0.003644  -0.000832
    28  H   -0.005387   0.006673   0.000236  -0.000007   0.000000   0.000012
    29  H   -0.036069  -0.005063   0.000011   0.000000  -0.000000   0.000000
              25         26         27         28         29
     1  C    0.008345  -0.000153  -0.000312   0.000144   0.368661
     2  C   -0.000305   0.000001   0.000068   0.000000  -0.039669
     3  C   -0.000037  -0.000003   0.000016  -0.000002  -0.028699
     4  C    0.009107  -0.000067  -0.000300  -0.000139   0.004355
     5  C   -0.000001  -0.000000   0.000000   0.000000  -0.000088
     6  H    0.000000   0.000000  -0.000000  -0.000000   0.000001
     7  C   -0.000000   0.000000  -0.000000   0.000000   0.000001
     8  H    0.000000   0.000000  -0.000000   0.000000   0.000001
     9  S    0.000001   0.000000  -0.000000  -0.000000   0.002838
    10  N   -0.000081   0.000001   0.000030  -0.000000   0.001321
    11  O   -0.000045   0.000000  -0.000001   0.000000  -0.000053
    12  H    0.000004   0.000000  -0.000000  -0.000000  -0.000014
    13  C    0.000002  -0.000000   0.000000  -0.000000  -0.009782
    14  H   -0.000000  -0.000000   0.000000  -0.000000   0.005385
    15  H   -0.000000   0.000000  -0.000000   0.000000  -0.000071
    16  H    0.000000  -0.000000   0.000000  -0.000000   0.000181
    17  C    0.367114  -0.025601  -0.024909  -0.027116   0.003694
    18  C   -0.068613  -0.006669  -0.004314   0.004271   0.000740
    19  C   -0.068022   0.001154   0.000506  -0.005387  -0.036069
    20  H   -0.011193   0.000169   0.000226   0.006673  -0.005063
    21  C   -0.018927   0.002507   0.001673   0.000236   0.000011
    22  H    0.000183   0.000006   0.000012  -0.000007   0.000000
    23  H    0.002311  -0.001187   0.003644   0.000000  -0.000000
    24  H    0.001872   0.003234  -0.000832   0.000012   0.000000
    25  C    5.045630   0.370448   0.370047   0.373871  -0.000187
    26  H    0.370448   0.604998  -0.035756  -0.029292   0.000005
    27  H    0.370047  -0.035756   0.591520  -0.027926   0.000001
    28  H    0.373871  -0.029292  -0.027926   0.596150  -0.000006
    29  H   -0.000187   0.000005   0.000001  -0.000006   0.631685
          Atomic-Atomic Spin Densities.
               1          2          3          4          5          6
     1  C   -0.114130   0.024153  -0.071710  -0.000417  -0.000654   0.000009
     2  C    0.024153   0.287153  -0.032554  -0.010797  -0.000403   0.000007
     3  C   -0.071710  -0.032554   0.780481  -0.001122  -0.011537   0.000764
     4  C   -0.000417  -0.010797  -0.001122  -0.133602  -0.000001  -0.000000
     5  C   -0.000654  -0.000403  -0.011537  -0.000001   0.099069  -0.006543
     6  H    0.000009   0.000007   0.000764  -0.000000  -0.006543   0.002396
     7  C    0.000022   0.000037   0.001657   0.000000  -0.012772   0.002699
     8  H    0.000003   0.000001   0.000498   0.000000  -0.003323   0.000413
     9  S    0.006361   0.002785  -0.078582   0.000076  -0.017171   0.000518
    10  N    0.003414   0.001882  -0.034514   0.000049  -0.006931   0.001139
    11  O   -0.000087   0.000380  -0.000004   0.015468  -0.000000   0.000000
    12  H    0.000003  -0.000185  -0.000015   0.000518  -0.000000   0.000000
    13  C    0.000045  -0.002664   0.001307   0.000610   0.000010  -0.000000
    14  H    0.000427  -0.000786  -0.000589   0.000067  -0.000003   0.000000
    15  H   -0.000570  -0.006339   0.002165  -0.000281   0.000069  -0.000001
    16  H    0.000058  -0.003758  -0.000130   0.000672  -0.000000   0.000000
    17  C   -0.000596   0.000588   0.000135  -0.001544   0.000007  -0.000001
    18  C   -0.000497  -0.013622   0.002591   0.002416   0.000067  -0.000003
    19  C    0.019505   0.006121  -0.034547   0.000762  -0.000371   0.000008
    20  H    0.000325   0.000059   0.000506  -0.000051   0.000003  -0.000000
    21  C    0.000002  -0.000124   0.000002   0.000302  -0.000000   0.000000
    22  H    0.000001   0.000002  -0.000001   0.000296  -0.000000   0.000000
    23  H    0.000005  -0.000000  -0.000010  -0.000134  -0.000001   0.000000
    24  H    0.000003   0.000075   0.000002   0.000177   0.000000  -0.000000
    25  C   -0.000053   0.000022  -0.000018  -0.000029  -0.000000   0.000000
    26  H   -0.000011   0.000003  -0.000000  -0.000021  -0.000000   0.000000
    27  H    0.000003  -0.000005   0.000000   0.000006  -0.000000   0.000000
    28  H    0.000003   0.000001   0.000001  -0.000003   0.000000  -0.000000
    29  H    0.009232  -0.001447  -0.018068   0.000220  -0.000054   0.000000
               7          8          9         10         11         12
     1  C    0.000022   0.000003   0.006361   0.003414  -0.000087   0.000003
     2  C    0.000037   0.000001   0.002785   0.001882   0.000380  -0.000185
     3  C    0.001657   0.000498  -0.078582  -0.034514  -0.000004  -0.000015
     4  C    0.000000   0.000000   0.000076   0.000049   0.015468   0.000518
     5  C   -0.012772  -0.003323  -0.017171  -0.006931  -0.000000  -0.000000
     6  H    0.002699   0.000413   0.000518   0.001139   0.000000   0.000000
     7  C   -0.013445  -0.000604   0.007874   0.001530   0.000000   0.000000
     8  H   -0.000604   0.007691  -0.001392  -0.000208   0.000000   0.000000
     9  S    0.007874  -0.001392   0.124513   0.003750   0.000000   0.000002
    10  N    0.001530  -0.000208   0.003750   0.012809   0.000002   0.000002
    11  O    0.000000   0.000000   0.000000   0.000002  -0.025355  -0.000059
    12  H    0.000000   0.000000   0.000002   0.000002  -0.000059  -0.000209
    13  C   -0.000000  -0.000000  -0.000244  -0.000017   0.000133   0.000035
    14  H   -0.000000   0.000000   0.000159   0.000001  -0.000001   0.000011
    15  H   -0.000008  -0.000001  -0.000664  -0.000056   0.000014  -0.000257
    16  H    0.000000   0.000000   0.000021   0.000001  -0.000107   0.000189
    17  C   -0.000000  -0.000000   0.000001  -0.000086  -0.000061   0.000001
    18  C   -0.000003  -0.000000  -0.000088  -0.001189  -0.001444   0.000124
    19  C    0.000022   0.000001   0.001738   0.003594   0.000011  -0.000001
    20  H   -0.000000  -0.000000  -0.000036  -0.000034  -0.000000  -0.000000
    21  C    0.000000   0.000000  -0.000000  -0.000002   0.000269  -0.000008
    22  H    0.000000   0.000000   0.000000   0.000000  -0.000040   0.000013
    23  H    0.000000   0.000000   0.000000   0.000015   0.000026   0.000003
    24  H   -0.000000  -0.000000  -0.000000  -0.000000  -0.000020  -0.000004
    25  C    0.000000   0.000000   0.000001   0.000011  -0.000000  -0.000000
    26  H    0.000000   0.000000   0.000000   0.000000  -0.000000  -0.000000
    27  H    0.000000   0.000000  -0.000000  -0.000001   0.000000   0.000000
    28  H   -0.000000  -0.000000  -0.000000  -0.000000  -0.000000  -0.000000
    29  H   -0.000007   0.000001   0.002784   0.000190  -0.000001   0.000002
              13         14         15         16         17         18
     1  C    0.000045   0.000427  -0.000570   0.000058  -0.000596  -0.000497
     2  C   -0.002664  -0.000786  -0.006339  -0.003758   0.000588  -0.013622
     3  C    0.001307  -0.000589   0.002165  -0.000130   0.000135   0.002591
     4  C    0.000610   0.000067  -0.000281   0.000672  -0.001544   0.002416
     5  C    0.000010  -0.000003   0.000069  -0.000000   0.000007   0.000067
     6  H   -0.000000   0.000000  -0.000001   0.000000  -0.000001  -0.000003
     7  C   -0.000000  -0.000000  -0.000008   0.000000  -0.000000  -0.000003
     8  H   -0.000000   0.000000  -0.000001   0.000000  -0.000000  -0.000000
     9  S   -0.000244   0.000159  -0.000664   0.000021   0.000001  -0.000088
    10  N   -0.000017   0.000001  -0.000056   0.000001  -0.000086  -0.001189
    11  O    0.000133  -0.000001   0.000014  -0.000107  -0.000061  -0.001444
    12  H    0.000035   0.000011  -0.000257   0.000189   0.000001   0.000124
    13  C   -0.022513   0.000761   0.001307   0.002772  -0.000019  -0.000036
    14  H    0.000761   0.001392  -0.001351   0.000537   0.000002  -0.000001
    15  H    0.001307  -0.001351   0.021101  -0.003221  -0.000006   0.000075
    16  H    0.002772   0.000537  -0.003221   0.008854   0.000004   0.000034
    17  C   -0.000019   0.000002  -0.000006   0.000004  -0.144020   0.005791
    18  C   -0.000036  -0.000001   0.000075   0.000034   0.005791   0.352406
    19  C   -0.000020  -0.000006  -0.000020  -0.000015  -0.009722  -0.012996
    20  H    0.000003  -0.000000   0.000000  -0.000000   0.000000   0.000035
    21  C    0.000002  -0.000000   0.000000  -0.000000   0.000907  -0.003840
    22  H    0.000000   0.000000  -0.000000   0.000000  -0.000035  -0.000711
    23  H   -0.000000   0.000000  -0.000000   0.000000   0.000213  -0.006203
    24  H   -0.000000  -0.000000   0.000000  -0.000000  -0.000165  -0.008218
    25  C   -0.000000   0.000000  -0.000000   0.000000   0.003002  -0.001480
    26  H    0.000000   0.000000  -0.000000   0.000000   0.002283   0.000019
    27  H   -0.000000  -0.000000   0.000000  -0.000000   0.002499  -0.000124
    28  H    0.000000  -0.000000   0.000000  -0.000000   0.000414   0.000083
    29  H   -0.000137   0.000367  -0.000241   0.000103   0.000044   0.000028
              19         20         21         22         23         24
     1  C    0.019505   0.000325   0.000002   0.000001   0.000005   0.000003
     2  C    0.006121   0.000059  -0.000124   0.000002  -0.000000   0.000075
     3  C   -0.034547   0.000506   0.000002  -0.000001  -0.000010   0.000002
     4  C    0.000762  -0.000051   0.000302   0.000296  -0.000134   0.000177
     5  C   -0.000371   0.000003  -0.000000  -0.000000  -0.000001   0.000000
     6  H    0.000008  -0.000000   0.000000   0.000000   0.000000  -0.000000
     7  C    0.000022  -0.000000   0.000000   0.000000   0.000000  -0.000000
     8  H    0.000001  -0.000000   0.000000   0.000000   0.000000  -0.000000
     9  S    0.001738  -0.000036  -0.000000   0.000000   0.000000  -0.000000
    10  N    0.003594  -0.000034  -0.000002   0.000000   0.000015  -0.000000
    11  O    0.000011  -0.000000   0.000269  -0.000040   0.000026  -0.000020
    12  H   -0.000001  -0.000000  -0.000008   0.000013   0.000003  -0.000004
    13  C   -0.000020   0.000003   0.000002   0.000000  -0.000000  -0.000000
    14  H   -0.000006  -0.000000  -0.000000   0.000000   0.000000  -0.000000
    15  H   -0.000020   0.000000   0.000000  -0.000000  -0.000000   0.000000
    16  H   -0.000015  -0.000000  -0.000000   0.000000   0.000000  -0.000000
    17  C   -0.009722   0.000000   0.000907  -0.000035   0.000213  -0.000165
    18  C   -0.012996   0.000035  -0.003840  -0.000711  -0.006203  -0.008218
    19  C    0.281154   0.001576  -0.000058  -0.000002   0.000073   0.000086
    20  H    0.001576  -0.013654   0.000002  -0.000000  -0.000001   0.000001
    21  C   -0.000058   0.000002  -0.028343   0.001079   0.002264   0.003203
    22  H   -0.000002  -0.000000   0.001079   0.000541   0.000400  -0.000877
    23  H    0.000073  -0.000001   0.002264   0.000400   0.021326  -0.005864
    24  H    0.000086   0.000001   0.003203  -0.000877  -0.005864   0.026773
    25  C   -0.000094   0.000145   0.000324   0.000001  -0.000040   0.000127
    26  H   -0.000002  -0.000000   0.000024   0.000001   0.000052  -0.000138
    27  H    0.000022  -0.000005  -0.000048   0.000000  -0.000046   0.000012
    28  H   -0.000161  -0.000078  -0.000005  -0.000000  -0.000001   0.000003
    29  H   -0.000974  -0.000066   0.000000   0.000000   0.000000  -0.000000
              25         26         27         28         29
     1  C   -0.000053  -0.000011   0.000003   0.000003   0.009232
     2  C    0.000022   0.000003  -0.000005   0.000001  -0.001447
     3  C   -0.000018  -0.000000   0.000000   0.000001  -0.018068
     4  C   -0.000029  -0.000021   0.000006  -0.000003   0.000220
     5  C   -0.000000  -0.000000  -0.000000   0.000000  -0.000054
     6  H    0.000000   0.000000   0.000000  -0.000000   0.000000
     7  C    0.000000   0.000000   0.000000  -0.000000  -0.000007
     8  H    0.000000   0.000000   0.000000  -0.000000   0.000001
     9  S    0.000001   0.000000  -0.000000  -0.000000   0.002784
    10  N    0.000011   0.000000  -0.000001  -0.000000   0.000190
    11  O   -0.000000  -0.000000   0.000000  -0.000000  -0.000001
    12  H   -0.000000  -0.000000   0.000000  -0.000000   0.000002
    13  C   -0.000000   0.000000  -0.000000   0.000000  -0.000137
    14  H    0.000000   0.000000  -0.000000  -0.000000   0.000367
    15  H   -0.000000  -0.000000   0.000000   0.000000  -0.000241
    16  H    0.000000   0.000000  -0.000000  -0.000000   0.000103
    17  C    0.003002   0.002283   0.002499   0.000414   0.000044
    18  C   -0.001480   0.000019  -0.000124   0.000083   0.000028
    19  C   -0.000094  -0.000002   0.000022  -0.000161  -0.000974
    20  H    0.000145  -0.000000  -0.000005  -0.000078  -0.000066
    21  C    0.000324   0.000024  -0.000048  -0.000005   0.000000
    22  H    0.000001   0.000001   0.000000  -0.000000   0.000000
    23  H   -0.000040   0.000052  -0.000046  -0.000001   0.000000
    24  H    0.000127  -0.000138   0.000012   0.000003  -0.000000
    25  C    0.008984  -0.001022  -0.000767  -0.000403  -0.000001
    26  H   -0.001022  -0.006790   0.001760   0.000026  -0.000000
    27  H   -0.000767   0.001760  -0.008125   0.000210   0.000000
    28  H   -0.000403   0.000026   0.000210  -0.000636  -0.000000
    29  H   -0.000001  -0.000000   0.000000  -0.000000   0.023342
 Mulliken charges and spin densities:
               1          2
     1  C   -0.168874  -0.125152
     2  C    0.134380   0.250586
     3  C   -0.004850   0.506707
     4  C    0.256725  -0.126363
     5  C    0.095836   0.039459
     6  H    0.104060   0.001403
     7  C   -0.305726  -0.012999
     8  H    0.127563   0.003079
     9  S    0.198107   0.052407
    10  N   -0.384093  -0.014652
    11  O   -0.570132  -0.010875
    12  H    0.320400   0.000162
    13  C   -0.415641  -0.018663
    14  H    0.123516   0.000987
    15  H    0.132565   0.011714
    16  H    0.114866   0.006012
    17  C    0.104760  -0.140366
    18  C    0.077425   0.313213
    19  C   -0.087618   0.255680
    20  H    0.082715  -0.011269
    21  C   -0.381149  -0.024046
    22  H    0.137251   0.000669
    23  H    0.119631   0.012077
    24  H    0.117660   0.015176
    25  C   -0.381528   0.008709
    26  H    0.116206  -0.003818
    27  H    0.126609  -0.004608
    28  H    0.108519  -0.000548
    29  H    0.100818   0.015319
 Sum of Mulliken charges =  -0.00000   1.00000
 Mulliken charges and spin densities with hydrogens summed into heavy atoms:
               1          2
     1  C   -0.068056  -0.109833
     2  C    0.134380   0.250586
     3  C   -0.004850   0.506707
     4  C    0.256725  -0.126363
     5  C    0.199896   0.040861
     7  C   -0.178163  -0.009919
     9  S    0.198107   0.052407
    10  N   -0.384093  -0.014652
    11  O   -0.249733  -0.010713
    13  C   -0.044695   0.000050
    17  C    0.104760  -0.140366
    18  C    0.077425   0.313213
    19  C   -0.004904   0.244411
    21  C   -0.006607   0.003875
    25  C   -0.030195  -0.000265
 APT charges:
               1
     1  C   -0.796370
     2  C   -0.103146
     3  C    0.690877
     4  C   -0.049355
     5  C   -0.490373
     6  H   -0.008337
     7  C   -0.287268
     8  H    0.600537
     9  S    0.488553
    10  N   -1.058435
    11  O   -0.590665
    12  H    0.496917
    13  C   -1.168366
    14  H    0.714340
    15  H   -0.182963
    16  H    0.776436
    17  C   -0.007225
    18  C   -0.366286
    19  C   -0.422237
    20  H    0.690822
    21  C   -1.078629
    22  H    0.219111
    23  H   -0.022537
    24  H    0.988824
    25  C   -1.166820
    26  H    0.863432
    27  H   -0.160814
    28  H    0.666449
    29  H    0.763527
 Sum of APT charges =  -0.00000
 APT charges with hydrogens summed into heavy atoms:
               1
     1  C   -0.032843
     2  C   -0.103146
     3  C    0.690877
     4  C   -0.049355
     5  C   -0.498710
     7  C    0.313270
     9  S    0.488553
    10  N   -1.058435
    11  O   -0.093748
    13  C    0.139446
    17  C   -0.007225
    18  C   -0.366286
    19  C    0.268585
    21  C    0.106769
    25  C    0.202247
 Electronic spatial extent (au):  <R**2>=          10523.3332
 Charge=             -0.0000 electrons
 Dipole moment (field-independent basis, Debye):
    X=              0.3425    Y=              0.5727    Z=              0.9024  Tot=              1.1223
 Quadrupole moment (field-independent basis, Debye-Ang):
   XX=            -91.9173   YY=            -89.6494   ZZ=            -88.4814
   XY=             -0.0765   XZ=              5.2216   YZ=              2.1186
 Traceless Quadrupole moment (field-independent basis, Debye-Ang):
   XX=             -1.9012   YY=              0.3666   ZZ=              1.5346
   XY=             -0.0765   XZ=              5.2216   YZ=              2.1186
 Octapole moment (field-independent basis, Debye-Ang**2):
  XXX=           -939.7036  YYY=            459.9531  ZZZ=           -363.6527  XYY=           -308.6367
  XXY=            153.4412  XXZ=           -111.5697  XZZ=           -298.2544  YZZ=            180.2805
  YYZ=           -156.2445  XYZ=              5.0287
 Hexadecapole moment (field-independent basis, Debye-Ang**3):
 XXXX=          -7161.7131 YYYY=          -4231.1101 ZZZZ=          -2405.0286 XXXY=           1270.9856
 XXXZ=          -1149.3164 YYYX=           1312.2588 YYYZ=           1044.4575 ZZZX=          -1128.6731
 ZZZY=           1099.5826 XXYY=          -1941.7580 XXZZ=          -1579.9731 YYZZ=          -1269.1996
 XXYZ=            370.2187 YYXZ=           -499.6956 ZZXY=            482.0987
 N-N= 1.070925351978D+03 E-N=-4.471188027055D+03  KE= 9.868385260604D+02
  Exact polarizability:       0.000       0.000       0.000       0.000       0.000       0.000
 Approx polarizability:     253.214      59.395     302.949      -9.601     -17.500     219.821
                          Isotropic Fermi Contact Couplings
        Atom                 a.u.       MegaHertz       Gauss      10(-4) cm-1
     1  C(13)              0.00652       7.32769       2.61470       2.44426
     2  C(13)              0.02828      31.79073      11.34372      10.60425
     3  C(13)              0.53915     606.10701     216.27405     202.17554
     4  C(13)             -0.02120     -23.82978      -8.50306      -7.94876
     5  C(13)              0.04892      54.99547      19.62375      18.34451
     6  H(1)               0.00025       1.10112       0.39291       0.36729
     7  C(13)             -0.00144      -1.61483      -0.57621      -0.53865
     8  H(1)               0.00147       6.56766       2.34350       2.19074
     9  S(33)              0.13493      46.34390      16.53666      15.45866
    10  N(14)              0.09596      31.00440      11.06314      10.34195
    11  O(17)             -0.00428       2.59449       0.92578       0.86543
    12  H(1)               0.00000       0.00566       0.00202       0.00189
    13  C(13)             -0.00686      -7.70992      -2.75109      -2.57175
    14  H(1)               0.00040       1.76894       0.63120       0.59006
    15  H(1)               0.00524      23.41685       8.35572       7.81102
    16  H(1)               0.00345      15.43180       5.50645       5.14749
    17  C(13)             -0.02095     -23.54687      -8.40211      -7.85439
    18  C(13)              0.03551      39.92347      14.24569      13.31704
    19  C(13)              0.02810      31.59122      11.27253      10.53770
    20  H(1)              -0.00379     -16.93194      -6.04174      -5.64789
    21  C(13)             -0.00860      -9.66696      -3.44941      -3.22455
    22  H(1)               0.00028       1.24030       0.44257       0.41372
    23  H(1)               0.00621      27.77058       9.90923       9.26327
    24  H(1)               0.00777      34.73172      12.39314      11.58525
    25  C(13)              0.00282       3.17431       1.13267       1.05883
    26  H(1)              -0.00193      -8.61034      -3.07239      -2.87210
    27  H(1)              -0.00232     -10.37864      -3.70336      -3.46194
    28  H(1)              -0.00021      -0.95266      -0.33993      -0.31777
    29  H(1)               0.00995      44.47247      15.86888      14.83442
 --------------------------------------------------------
       Center         ----  Spin Dipole Couplings  ----
                      3XX-RR        3YY-RR        3ZZ-RR
 --------------------------------------------------------
     1   Atom        0.005672     -0.004828     -0.000844
     2   Atom       -0.025783      0.014109      0.011675
     3   Atom       -0.093435      0.113234     -0.019800
     4   Atom        0.005912     -0.002911     -0.003001
     5   Atom       -0.007900      0.005763      0.002137
     6   Atom        0.003175     -0.002024     -0.001151
     7   Atom        0.016485      0.009669     -0.026155
     8   Atom        0.000611      0.001439     -0.002050
     9   Atom       -0.107510      0.320292     -0.212782
    10   Atom        0.002512      0.064290     -0.066803
    11   Atom        0.001560      0.001846     -0.003406
    12   Atom        0.001806     -0.003644      0.001837
    13   Atom       -0.004879     -0.000074      0.004953
    14   Atom       -0.002193     -0.000098      0.002291
    15   Atom       -0.003479      0.000747      0.002732
    16   Atom       -0.003222     -0.001441      0.004663
    17   Atom        0.009314     -0.001534     -0.007781
    18   Atom       -0.029002      0.021577      0.007424
    19   Atom       -0.025281      0.017576      0.007705
    20   Atom       -0.000071     -0.006167      0.006238
    21   Atom        0.001938      0.000566     -0.002504
    22   Atom        0.002958     -0.002068     -0.000889
    23   Atom        0.002303     -0.000483     -0.001820
    24   Atom       -0.000535      0.003696     -0.003161
    25   Atom       -0.001489      0.001857     -0.000368
    26   Atom       -0.001174      0.001800     -0.000626
    27   Atom       -0.001318      0.000671      0.000647
    28   Atom       -0.001617      0.002136     -0.000519
    29   Atom        0.005165     -0.004991     -0.000174
 --------------------------------------------------------
                        XY            XZ            YZ
 --------------------------------------------------------
     1   Atom        0.035606     -0.036214      0.043826
     2   Atom       -0.130108      0.125824     -0.144164
     3   Atom       -0.252647      0.125074     -0.216254
     4   Atom        0.056716     -0.049288      0.056445
     5   Atom       -0.022117      0.006268     -0.013642
     6   Atom       -0.002254      0.004171     -0.001720
     7   Atom       -0.001966      0.023038     -0.019995
     8   Atom        0.000028      0.001722     -0.002267
     9   Atom        0.204859     -0.006092     -0.075236
    10   Atom       -0.000784      0.048923     -0.047259
    11   Atom        0.032656     -0.043341      0.036623
    12   Atom       -0.000452     -0.004041     -0.001661
    13   Atom       -0.000520      0.001331      0.001817
    14   Atom        0.002524      0.003112      0.002398
    15   Atom       -0.001423     -0.001600      0.003852
    16   Atom       -0.000063      0.000075      0.002348
    17   Atom        0.053934     -0.057537      0.054928
    18   Atom       -0.151224      0.150431     -0.180957
    19   Atom       -0.128725      0.118843     -0.140202
    20   Atom       -0.012453     -0.012052      0.000889
    21   Atom        0.001617      0.001625     -0.004312
    22   Atom        0.001611     -0.003118     -0.001535
    23   Atom        0.003883      0.001939      0.000800
    24   Atom        0.003173     -0.000577     -0.001486
    25   Atom        0.001494     -0.001113      0.002885
    26   Atom        0.000008     -0.000462      0.001649
    27   Atom        0.001151      0.000088      0.001769
    28   Atom        0.000663      0.000252      0.002146
    29   Atom       -0.004993      0.005793      0.000059
 --------------------------------------------------------


 ---------------------------------------------------------------------------------
              Anisotropic Spin Dipole Couplings in Principal Axis System
 ---------------------------------------------------------------------------------

       Atom             a.u.   MegaHertz   Gauss  10(-4) cm-1        Axes

              Baa    -0.0776   -10.419    -3.718    -3.475 -0.5204  0.6126 -0.5949
     1 C(13)  Bbb     0.0362     4.861     1.734     1.621  0.8212  0.5501 -0.1519
              Bcc     0.0414     5.558     1.983     1.854 -0.2342  0.5676  0.7893
 
              Baa    -0.1377   -18.478    -6.594    -6.164  0.8162  0.5584 -0.1486
     2 C(13)  Bbb    -0.1307   -17.539    -6.258    -5.850 -0.2435  0.5656  0.7879
              Bcc     0.2684    36.017    12.852    12.014 -0.5240  0.6069 -0.5976
 
              Baa    -0.2652   -35.584   -12.697   -11.870  0.7905  0.5994  0.1253
     3 C(13)  Bbb    -0.1581   -21.209    -7.568    -7.075 -0.3856  0.3283  0.8623
              Bcc     0.4232    56.793    20.265    18.944 -0.4758  0.7300 -0.4907
 
              Baa    -0.1086   -14.567    -5.198    -4.859 -0.5483  0.6036 -0.5788
     4 C(13)  Bbb     0.0498     6.683     2.384     2.229 -0.5330  0.2811  0.7980
              Bcc     0.0588     7.885     2.813     2.630  0.6444  0.7461  0.1676
 
              Baa    -0.0246    -3.306    -1.180    -1.103  0.7709  0.6221  0.1365
     5 C(13)  Bbb    -0.0053    -0.707    -0.252    -0.236 -0.3914  0.2937  0.8721
              Bcc     0.0299     4.013     1.432     1.339 -0.5025  0.7258 -0.4699
 
              Baa    -0.0038    -2.019    -0.720    -0.673 -0.4139  0.3076  0.8568
     6 H(1)   Bbb    -0.0028    -1.519    -0.542    -0.507  0.4199  0.8996 -0.1201
              Bcc     0.0066     3.538     1.262     1.180  0.8077 -0.3101  0.5015
 
              Baa    -0.0423    -5.677    -2.026    -1.894 -0.3353  0.3272  0.8835
     7 C(13)  Bbb     0.0103     1.387     0.495     0.463  0.5742  0.8144 -0.0837
              Bcc     0.0320     4.289     1.531     1.431  0.7469 -0.4792  0.4609
 
              Baa    -0.0037    -1.993    -0.711    -0.665 -0.3431  0.3785  0.8597
     8 H(1)   Bbb     0.0009     0.473     0.169     0.158  0.8633  0.4878  0.1298
              Bcc     0.0028     1.521     0.543     0.507 -0.3702  0.7867 -0.4941
 
              Baa    -0.2327    -9.539    -3.404    -3.182 -0.3901  0.2645  0.8820
     9 S(33)  Bbb    -0.1783    -7.308    -2.608    -2.438  0.8448 -0.2782  0.4571
              Bcc     0.4109    16.847     6.011     5.620  0.3662  0.9234 -0.1150
 
              Baa    -0.1027    -3.962    -1.414    -1.321 -0.4070  0.2469  0.8794
    10 N(14)  Bbb     0.0195     0.752     0.268     0.251  0.8849  0.3453  0.3126
              Bcc     0.0832     3.210     1.145     1.071 -0.2264  0.9054 -0.3590
 
              Baa    -0.0755     5.460     1.948     1.821  0.5751 -0.5358  0.6182
    11 O(17)  Bbb     0.0328    -2.375    -0.847    -0.792  0.4539  0.8377  0.3037
              Bcc     0.0426    -3.085    -1.101    -1.029 -0.6806  0.1060  0.7249
 
              Baa    -0.0046    -2.474    -0.883    -0.825  0.3224  0.8487  0.4191
    12 H(1)   Bbb    -0.0013    -0.697    -0.249    -0.232  0.6472 -0.5208  0.5567
              Bcc     0.0059     3.170     1.131     1.058 -0.6908 -0.0917  0.7172
 
              Baa    -0.0052    -0.694    -0.248    -0.232  0.9755  0.1550 -0.1560
    13 C(13)  Bbb    -0.0005    -0.065    -0.023    -0.022 -0.1928  0.9438 -0.2683
              Bcc     0.0057     0.759     0.271     0.253  0.1057  0.2918  0.9506
 
              Baa    -0.0043    -2.271    -0.810    -0.757  0.8835 -0.3729 -0.2834
    14 H(1)   Bbb    -0.0015    -0.807    -0.288    -0.269  0.1365  0.7838 -0.6058
              Bcc     0.0058     3.078     1.098     1.027  0.4480  0.4966  0.7434
 
              Baa    -0.0040    -2.114    -0.754    -0.705  0.9732  0.1962  0.1197
    15 H(1)   Bbb    -0.0022    -1.188    -0.424    -0.396 -0.0790  0.7748 -0.6273
              Bcc     0.0062     3.303     1.178     1.102 -0.2158  0.6010  0.7695
 
              Baa    -0.0032    -1.723    -0.615    -0.575  0.9965  0.0776 -0.0325
    16 H(1)   Bbb    -0.0022    -1.191    -0.425    -0.397 -0.0840  0.9436 -0.3203
              Bcc     0.0055     2.914     1.040     0.972  0.0058  0.3219  0.9468
 
              Baa    -0.1113   -14.930    -5.327    -4.980  0.5474 -0.5740  0.6090
    17 C(13)  Bbb     0.0504     6.757     2.411     2.254  0.0199  0.7365  0.6762
              Bcc     0.0609     8.173     2.916     2.726  0.8366  0.3580 -0.4145
 
              Baa    -0.1676   -22.486    -8.024    -7.501 -0.2583  0.5520  0.7928
    18 C(13)  Bbb    -0.1568   -21.036    -7.506    -7.017  0.8162  0.5637 -0.1265
              Bcc     0.3243    43.523    15.530    14.518 -0.5168  0.6144 -0.5962
 
              Baa    -0.1343   -18.028    -6.433    -6.014  0.7644  0.6448 -0.0031
    19 C(13)  Bbb    -0.1260   -16.908    -6.033    -5.640 -0.3774  0.4513  0.8087
              Bcc     0.2603    34.936    12.466    11.654 -0.5228  0.6169 -0.5883
 
              Baa    -0.0181    -9.673    -3.451    -3.227  0.6706  0.6753  0.3070
    20 H(1)   Bbb    -0.0006    -0.311    -0.111    -0.104  0.3389 -0.6471  0.6830
              Bcc     0.0187     9.984     3.563     3.330 -0.6599  0.3540  0.6627
 
              Baa    -0.0062    -0.829    -0.296    -0.276 -0.2687  0.5639  0.7809
    21 C(13)  Bbb     0.0024     0.329     0.117     0.110  0.9168 -0.0989  0.3869
              Bcc     0.0037     0.500     0.178     0.167  0.2954  0.8199 -0.4904
 
              Baa    -0.0032    -1.707    -0.609    -0.569  0.1665  0.7025  0.6919
    22 H(1)   Bbb    -0.0021    -1.136    -0.406    -0.379 -0.5350  0.6538 -0.5351
              Bcc     0.0053     2.843     1.014     0.948  0.8283  0.2810 -0.4847
 
              Baa    -0.0034    -1.819    -0.649    -0.607 -0.6046  0.6964  0.3867
    23 H(1)   Bbb    -0.0022    -1.169    -0.417    -0.390  0.0244 -0.4691  0.8828
              Bcc     0.0056     2.988     1.066     0.997  0.7962  0.5432  0.2666
 
              Baa    -0.0035    -1.853    -0.661    -0.618 -0.0511  0.2243  0.9732
    24 H(1)   Bbb    -0.0022    -1.176    -0.420    -0.392  0.8861 -0.4393  0.1478
              Bcc     0.0057     3.029     1.081     1.010  0.4606  0.8699 -0.1763
 
              Baa    -0.0038    -0.503    -0.180    -0.168  0.6220 -0.4828  0.6164
    25 C(13)  Bbb    -0.0002    -0.021    -0.008    -0.007  0.7735  0.2565 -0.5796
              Bcc     0.0039     0.525     0.187     0.175  0.1217  0.8373  0.5330
 
              Baa    -0.0018    -0.939    -0.335    -0.313  0.5851 -0.3419  0.7354
    26 H(1)   Bbb    -0.0009    -0.472    -0.168    -0.158  0.8092  0.3056 -0.5017
              Bcc     0.0026     1.411     0.504     0.471 -0.0532  0.8886  0.4555
 
              Baa    -0.0021    -1.106    -0.394    -0.369  0.7799 -0.5358  0.3234
    27 H(1)   Bbb    -0.0006    -0.298    -0.106    -0.100 -0.5840 -0.4373  0.6839
              Bcc     0.0026     1.404     0.501     0.468  0.2250  0.7222  0.6540
 
              Baa    -0.0018    -0.969    -0.346    -0.323  0.6995 -0.4280  0.5723
    28 H(1)   Bbb    -0.0016    -0.860    -0.307    -0.287  0.7013  0.2566 -0.6651
              Bcc     0.0034     1.830     0.653     0.610  0.1378  0.8666  0.4797
 
              Baa    -0.0079    -4.215    -1.504    -1.406  0.4673  0.8091 -0.3565
    29 H(1)   Bbb    -0.0022    -1.159    -0.414    -0.387 -0.2835  0.5190  0.8064
              Bcc     0.0101     5.375     1.918     1.793  0.8375 -0.2758  0.4718
 

 ---------------------------------------------------------------------------------

 Calling FoFJK, ICntrl=    100127 FMM=F ISym2X=0 I1Cent= 0 IOpClX= 1 NMat=1 NMatS=1 NMatT=0.
 -------------------------------------------------------------------
 Center     Atomic                   Forces (Hartrees/Bohr)
 Number     Number              X              Y              Z
 -------------------------------------------------------------------
      1        6          -0.003292109    0.006707794   -0.005537301
      2        6          -0.000003175    0.000001228   -0.000002867
      3        6           0.003255359   -0.006756310    0.005549053
      4        6          -0.000002332   -0.000003020    0.000006709
      5        6           0.000002465    0.000000125    0.000000290
      6        1          -0.000001520   -0.000003981    0.000001034
      7        6           0.000012911   -0.000001305    0.000003619
      8        1           0.000002675    0.000000584    0.000001468
      9       16           0.000016498    0.000056041   -0.000016918
     10        7           0.000003967   -0.000003075   -0.000002294
     11        8           0.000001078    0.000002862   -0.000006691
     12        1           0.000003079   -0.000001643    0.000002281
     13        6           0.000001994    0.000002950    0.000001814
     14        1           0.000000005   -0.000000157    0.000000170
     15        1           0.000001595   -0.000001242   -0.000000582
     16        1          -0.000000455   -0.000000430   -0.000001406
     17        6          -0.000001008   -0.000000919    0.000000479
     18        6           0.000000984    0.000001331    0.000000041
     19        6           0.000002552    0.000001826    0.000000451
     20        1          -0.000001271   -0.000000335   -0.000000067
     21        6          -0.000003165   -0.000000612    0.000000037
     22        1           0.000000391   -0.000000267   -0.000000246
     23        1           0.000000576   -0.000000165    0.000000292
     24        1           0.000000349    0.000000660    0.000000515
     25        6          -0.000000730   -0.000001697   -0.000000917
     26        1          -0.000000359    0.000000710    0.000000248
     27        1           0.000000159    0.000000322    0.000000553
     28        1          -0.000000526    0.000000165    0.000000408
     29        1           0.000000013   -0.000001442   -0.000000175
 -------------------------------------------------------------------
 Cartesian Forces:  Max     0.006756310 RMS     0.001412324
 FormGI is forming the generalized inverse of G from B-inverse, IUseBI=4.

 GradGradGradGradGradGradGradGradGradGradGradGradGradGradGradGradGradGrad
 Berny optimization.
 Internal  Forces:  Max     0.009299365 RMS     0.000767016
 Search for a saddle point.
 Step number   1 out of a maximum of  157
 All quantities printed in internal units (Hartrees-Bohrs-Radians)
 Swapping is turned off.
 Second derivative matrix not updated -- analytic derivatives used.
 ITU=  0
     Eigenvalues ---   -0.03533  -0.00038   0.00050   0.00097   0.00249
     Eigenvalues ---    0.00361   0.00395   0.00933   0.01161   0.01398
     Eigenvalues ---    0.01469   0.01520   0.01707   0.01807   0.01925
     Eigenvalues ---    0.02551   0.03048   0.03310   0.03877   0.03918
     Eigenvalues ---    0.05134   0.05379   0.05764   0.05815   0.05822
     Eigenvalues ---    0.05870   0.05955   0.06017   0.06075   0.07088
     Eigenvalues ---    0.09208   0.11199   0.11944   0.12066   0.12189
     Eigenvalues ---    0.12214   0.12484   0.14473   0.14510   0.14577
     Eigenvalues ---    0.14702   0.14872   0.15059   0.15812   0.16953
     Eigenvalues ---    0.18985   0.19060   0.19338   0.20131   0.20512
     Eigenvalues ---    0.22155   0.23189   0.25015   0.27187   0.30122
     Eigenvalues ---    0.31345   0.32197   0.32555   0.32937   0.33206
     Eigenvalues ---    0.33461   0.33676   0.33957   0.34589   0.34622
     Eigenvalues ---    0.35102   0.35250   0.36054   0.36576   0.37012
     Eigenvalues ---    0.37379   0.38407   0.39596   0.41108   0.42929
     Eigenvalues ---    0.45247   0.48411   0.48611   0.51399   0.53557
     Eigenvalues ---    0.58247
 Eigenvectors required to have negative eigenvalues:
                          R2        D18       D6        D17       D5
   1                    0.90218   0.16257  -0.15966   0.14919  -0.14786
                          D13       D3        R1        R3        A5
   1                   -0.09292   0.09245  -0.09139  -0.08905  -0.08700
 RFO step:  Lambda0=1.891361281D-03 Lambda=-5.36262534D-04.
 Linear search not attempted -- option 19 set.
 Iteration  1 RMS(Cart)=  0.10859107 RMS(Int)=  0.02374012
 Iteration  2 RMS(Cart)=  0.05206125 RMS(Int)=  0.00221987
 Iteration  3 RMS(Cart)=  0.00362180 RMS(Int)=  0.00066201
 Iteration  4 RMS(Cart)=  0.00001123 RMS(Int)=  0.00066199
 Iteration  5 RMS(Cart)=  0.00000001 RMS(Int)=  0.00066199
 Variable       Old X    -DE/DX   Delta X   Delta X   Delta X     New X
                                 (Linear)    (Quad)   (Total)
    R1        2.69936  -0.00000   0.00000  -0.01892  -0.01860   2.68077
    R2        4.04676  -0.00930   0.00000   0.14514   0.14514   4.19190
    R3        2.69426  -0.00000   0.00000  -0.02149  -0.02117   2.67309
    R4        2.05489  -0.00000   0.00000  -0.00289  -0.00289   2.05200
    R5        2.63221   0.00000   0.00000   0.00764   0.00763   2.63984
    R6        2.84630   0.00000   0.00000   0.00125   0.00125   2.84755
    R7        3.34048   0.00006   0.00000   0.00379   0.00436   3.34483
    R8        2.42216  -0.00001   0.00000  -0.00470  -0.00413   2.41803
    R9        2.59592  -0.00001   0.00000  -0.00026  -0.00026   2.59566
   R10        2.66943   0.00000   0.00000  -0.00635  -0.00667   2.66276
   R11        2.04857   0.00000   0.00000  -0.00012  -0.00012   2.04845
   R12        2.57645   0.00001   0.00000  -0.00075  -0.00140   2.57504
   R13        2.62257   0.00000   0.00000   0.00221   0.00208   2.62465
   R14        2.04318  -0.00000   0.00000   0.00009   0.00009   2.04327
   R15        3.30222  -0.00001   0.00000   0.00332   0.00294   3.30516
   R16        1.82273  -0.00000   0.00000  -0.00006  -0.00006   1.82268
   R17        2.06477  -0.00000   0.00000  -0.00048  -0.00048   2.06429
   R18        2.07808  -0.00000   0.00000  -0.00054  -0.00054   2.07755
   R19        2.07472  -0.00000   0.00000   0.00031   0.00031   2.07503
   R20        2.68004   0.00000   0.00000  -0.00490  -0.00522   2.67482
   R21        2.61333   0.00000   0.00000   0.00610   0.00611   2.61944
   R22        2.85163   0.00000   0.00000  -0.00059  -0.00059   2.85104
   R23        2.84566   0.00000   0.00000   0.00142   0.00142   2.84708
   R24        2.05094  -0.00000   0.00000  -0.00029  -0.00029   2.05065
   R25        2.05841  -0.00000   0.00000   0.00002   0.00002   2.05843
   R26        2.07135  -0.00000   0.00000  -0.00027  -0.00027   2.07108
   R27        2.07434  -0.00000   0.00000  -0.00048  -0.00048   2.07386
   R28        2.07123  -0.00000   0.00000   0.00005   0.00005   2.07128
   R29        2.07200  -0.00000   0.00000  -0.00007  -0.00007   2.07193
   R30        2.06504  -0.00000   0.00000  -0.00007  -0.00007   2.06496
    A1        1.74760   0.00000   0.00000  -0.03850  -0.03839   1.70922
    A2        2.08135   0.00000   0.00000   0.01398   0.01264   2.09399
    A3        2.04931  -0.00000   0.00000   0.01328   0.01106   2.06038
    A4        1.76815   0.00000   0.00000  -0.03101  -0.03086   1.73730
    A5        1.59443  -0.00000   0.00000  -0.02913  -0.02867   1.56576
    A6        2.06100  -0.00000   0.00000   0.01737   0.01537   2.07637
    A7        2.05860   0.00000   0.00000  -0.00301  -0.00236   2.05624
    A8        2.10327  -0.00000   0.00000   0.00820   0.00781   2.11109
    A9        2.11646   0.00000   0.00000  -0.00362  -0.00400   2.11245
   A10        2.14967   0.00000   0.00000  -0.01192  -0.01627   2.13340
   A11        2.11710   0.00000   0.00000  -0.00919  -0.01359   2.10350
   A12        2.00482  -0.00001   0.00000  -0.00122  -0.00347   2.00135
   A13        2.11569  -0.00000   0.00000  -0.00097  -0.00099   2.11470
   A14        2.13518  -0.00000   0.00000  -0.00311  -0.00307   2.13210
   A15        2.03202   0.00000   0.00000   0.00420   0.00418   2.03620
   A16        2.17953   0.00000   0.00000   0.00117   0.00123   2.18076
   A17        2.08060  -0.00001   0.00000   0.00018   0.00025   2.08085
   A18        2.02305   0.00001   0.00000  -0.00135  -0.00148   2.02158
   A19        2.24075   0.00000   0.00000  -0.00012   0.00009   2.24084
   A20        1.91055   0.00000   0.00000  -0.00009  -0.00051   1.91004
   A21        2.13187  -0.00000   0.00000   0.00019   0.00040   2.13227
   A22        1.54277  -0.00000   0.00000  -0.00045   0.00075   1.54352
   A23        1.94347  -0.00000   0.00000   0.00293   0.00446   1.94793
   A24        1.90905  -0.00000   0.00000   0.00100   0.00100   1.91004
   A25        1.93757   0.00000   0.00000   0.00028   0.00028   1.93785
   A26        1.95134  -0.00000   0.00000   0.00180   0.00180   1.95314
   A27        1.95603  -0.00000   0.00000  -0.00159  -0.00159   1.95444
   A28        1.85996  -0.00000   0.00000  -0.00048  -0.00049   1.85948
   A29        1.87105   0.00000   0.00000   0.00003   0.00003   1.87107
   A30        1.88321   0.00000   0.00000  -0.00006  -0.00006   1.88315
   A31        2.09118   0.00000   0.00000  -0.00136  -0.00132   2.08986
   A32        2.09118  -0.00000   0.00000   0.00153   0.00150   2.09268
   A33        2.10082  -0.00000   0.00000  -0.00017  -0.00019   2.10063
   A34        2.07444  -0.00000   0.00000   0.00144   0.00115   2.07558
   A35        2.10146   0.00000   0.00000  -0.00060  -0.00046   2.10100
   A36        2.10724  -0.00000   0.00000  -0.00081  -0.00067   2.10657
   A37        2.11003  -0.00000   0.00000  -0.00433  -0.00364   2.10639
   A38        2.07359   0.00000   0.00000   0.00512   0.00478   2.07837
   A39        2.09715  -0.00000   0.00000  -0.00094  -0.00128   2.09587
   A40        1.94603   0.00000   0.00000   0.00050   0.00050   1.94654
   A41        1.93627  -0.00000   0.00000  -0.00108  -0.00108   1.93520
   A42        1.94016  -0.00000   0.00000  -0.00067  -0.00067   1.93949
   A43        1.89118   0.00000   0.00000   0.00015   0.00015   1.89133
   A44        1.88542   0.00000   0.00000   0.00037   0.00037   1.88579
   A45        1.86170   0.00000   0.00000   0.00079   0.00079   1.86249
   A46        1.95097  -0.00000   0.00000   0.00066   0.00066   1.95163
   A47        1.93899  -0.00000   0.00000  -0.00097  -0.00098   1.93802
   A48        1.93999  -0.00000   0.00000  -0.00013  -0.00013   1.93986
   A49        1.86441   0.00000   0.00000   0.00067   0.00067   1.86508
   A50        1.88601   0.00000   0.00000   0.00008   0.00008   1.88610
   A51        1.88006   0.00000   0.00000  -0.00029  -0.00029   1.87977
    D1        1.71370   0.00000   0.00000  -0.03409  -0.03406   1.67964
    D2       -1.32344   0.00000   0.00000  -0.05075  -0.05074  -1.37417
    D3       -0.19167   0.00000   0.00000   0.02324   0.02345  -0.16822
    D4        3.05438  -0.00000   0.00000   0.00658   0.00678   3.06116
    D5       -2.87867   0.00000   0.00000  -0.08539  -0.08556  -2.96422
    D6        0.36738   0.00000   0.00000  -0.10205  -0.10223   0.26515
    D7        1.75524   0.00000   0.00000  -0.36119  -0.36110   1.39415
    D8       -1.21486  -0.00000   0.00000  -0.19716  -0.19804  -1.41290
    D9       -2.38438   0.00000   0.00000  -0.37034  -0.36940  -2.75378
   D10        0.92869  -0.00000   0.00000  -0.20631  -0.20634   0.72236
   D11       -0.30724   0.00000   0.00000  -0.36378  -0.36336  -0.67059
   D12        3.00584  -0.00000   0.00000  -0.19975  -0.20030   2.80554
   D13        0.18006   0.00000   0.00000  -0.01708  -0.01731   0.16275
   D14       -3.03601   0.00000   0.00000  -0.01936  -0.01963  -3.05564
   D15       -1.71392  -0.00000   0.00000   0.04446   0.04444  -1.66947
   D16        1.35320  -0.00000   0.00000   0.04218   0.04212   1.39532
   D17        2.86404  -0.00000   0.00000   0.09121   0.09158   2.95561
   D18       -0.35203  -0.00000   0.00000   0.08892   0.08925  -0.26278
   D19       -3.07141  -0.00000   0.00000  -0.01127  -0.01120  -3.08261
   D20        0.09723  -0.00000   0.00000  -0.01731  -0.01719   0.08003
   D21       -0.03510   0.00000   0.00000   0.00627   0.00623  -0.02887
   D22        3.13354   0.00000   0.00000   0.00023   0.00024   3.13377
   D23       -0.26319  -0.00000   0.00000   0.05039   0.05042  -0.21277
   D24        1.81132   0.00000   0.00000   0.05115   0.05118   1.86251
   D25       -2.35488  -0.00000   0.00000   0.05123   0.05126  -2.30362
   D26        2.98636  -0.00000   0.00000   0.03310   0.03307   3.01944
   D27       -1.22231  -0.00000   0.00000   0.03387   0.03384  -1.18847
   D28        0.89467  -0.00000   0.00000   0.03395   0.03392   0.92859
   D29       -2.99206  -0.00000   0.00000   0.14591   0.14592  -2.84614
   D30       -0.01188   0.00000   0.00000  -0.00912  -0.00918  -0.02105
   D31        2.99938   0.00000   0.00000  -0.14004  -0.14028   2.85909
   D32        0.01588  -0.00000   0.00000   0.01211   0.01221   0.02809
   D33        0.20862  -0.00000   0.00000  -0.02763  -0.02763   0.18100
   D34       -2.95849  -0.00000   0.00000  -0.02204  -0.02205  -2.98054
   D35        0.01501   0.00000   0.00000   0.00224   0.00224   0.01725
   D36       -3.13746  -0.00000   0.00000   0.00526   0.00524  -3.13222
   D37       -3.10075   0.00000   0.00000  -0.00345  -0.00343  -3.10418
   D38        0.02996  -0.00000   0.00000  -0.00044  -0.00043   0.02953
   D39       -0.00288   0.00000   0.00000  -0.00209  -0.00210  -0.00498
   D40       -3.13903  -0.00000   0.00000   0.00132   0.00127  -3.13776
   D41        3.13987   0.00000   0.00000  -0.00075  -0.00072   3.13915
   D42        0.00372  -0.00000   0.00000   0.00266   0.00265   0.00637
   D43        3.12989   0.00000   0.00000  -0.00840  -0.00847   3.12142
   D44       -0.01279   0.00000   0.00000  -0.00966  -0.00976  -0.02256
   D45        0.00403  -0.00000   0.00000   0.00319   0.00324   0.00727
   D46       -3.13252  -0.00000   0.00000   0.00635   0.00636  -3.12616
   D47       -0.03194  -0.00000   0.00000   0.00484   0.00480  -0.02714
   D48        3.12057   0.00000   0.00000   0.00181   0.00179   3.12236
   D49        3.11009  -0.00000   0.00000   0.00883   0.00879   3.11888
   D50       -0.02059   0.00000   0.00000   0.00580   0.00578  -0.01481
   D51       -0.06606  -0.00000   0.00000   0.00371   0.00366  -0.06240
   D52       -3.13218  -0.00000   0.00000   0.00577   0.00576  -3.12643
   D53        3.07509   0.00000   0.00000  -0.00030  -0.00034   3.07475
   D54        0.00897   0.00000   0.00000   0.00176   0.00175   0.01072
   D55       -0.97191   0.00000   0.00000   0.00126   0.00125  -0.97066
   D56        1.10893   0.00000   0.00000   0.00189   0.00189   1.11082
   D57       -3.08093   0.00000   0.00000   0.00079   0.00078  -3.08015
   D58        2.17012  -0.00000   0.00000   0.00527   0.00527   2.17539
   D59       -2.03222  -0.00000   0.00000   0.00590   0.00590  -2.02631
   D60        0.06110  -0.00000   0.00000   0.00480   0.00480   0.06590
   D61        0.10643   0.00000   0.00000  -0.00700  -0.00699   0.09944
   D62        2.21609   0.00000   0.00000  -0.00721  -0.00720   2.20889
   D63       -1.99855   0.00000   0.00000  -0.00735  -0.00734  -2.00589
   D64       -3.04624  -0.00000   0.00000  -0.00392  -0.00393  -3.05017
   D65       -0.93659   0.00000   0.00000  -0.00413  -0.00414  -0.94073
   D66        1.13196  -0.00000   0.00000  -0.00427  -0.00428   1.12767
         Item               Value     Threshold  Converged?
 Maximum Force            0.009299     0.000450     NO 
 RMS     Force            0.000767     0.000300     NO 
 Maximum Displacement     0.709234     0.001800     NO 
 RMS     Displacement     0.157090     0.001200     NO 
 Predicted change in Energy= 5.663672D-04
 GradGradGradGradGradGradGradGradGradGradGradGradGradGradGradGradGradGrad

                          Input orientation:                          
 ---------------------------------------------------------------------
 Center     Atomic      Atomic             Coordinates (Angstroms)
 Number     Number       Type             X           Y           Z
 ---------------------------------------------------------------------
      1          6           0        4.777738   -2.099255    1.807919
      2          6           0        3.928638   -1.834489    2.913068
      3          6           0        4.006150   -0.527722    0.445713
      4          6           0        2.770265   -2.604183    3.044156
      5          6           0        2.423680    0.471978   -0.725471
      6          1           0        1.525099    0.450007   -1.331367
      7          6           0        3.116455    1.598545   -0.397237
      8          1           0        2.904231    2.621947   -0.674210
      9         16           0        4.497881    1.166914    0.584811
     10          7           0        2.934412   -0.719364   -0.226554
     11          8           0        1.865115   -2.360983    4.048264
     12          1           0        2.083815   -1.528103    4.482751
     13          6           0        4.207856   -0.685633    3.847304
     14          1           0        5.206945   -0.277304    3.678863
     15          1           0        3.501711    0.143974    3.699752
     16          1           0        4.154946   -0.990450    4.900876
     17          6           0        3.404290   -3.999486    1.154907
     18          6           0        2.480999   -3.677574    2.178339
     19          6           0        4.553287   -3.239456    1.001397
     20          1           0        5.257964   -3.472576    0.209785
     21          6           0        1.213373   -4.473746    2.348932
     22          1           0        0.571773   -4.044009    3.117173
     23          1           0        0.648606   -4.514733    1.410578
     24          1           0        1.432958   -5.511420    2.630697
     25          6           0        3.130923   -5.162843    0.234001
     26          1           0        2.970413   -6.093653    0.790066
     27          1           0        2.227534   -4.988902   -0.362463
     28          1           0        3.961147   -5.320804   -0.458702
     29          1           0        5.755292   -1.626821    1.790334
 ---------------------------------------------------------------------
                    Distance matrix (angstroms):
                    1          2          3          4          5
     1  C    0.000000
     2  C    1.418600   0.000000
     3  C    2.218258   2.793114   0.000000
     4  C    2.411055   1.396941   3.548382   0.000000
     5  C    4.309395   4.563294   2.208004   4.877805   0.000000
     6  H    5.189751   5.386200   3.204619   5.479391   1.083993
     7  C    4.614790   4.837714   2.454206   5.442973   1.362655
     8  H    5.653382   5.811866   3.519781   6.415343   2.203616
     9  S    3.498881   3.840994   1.770010   4.822262   2.549919
    10  N    3.072626   3.476955   1.279567   3.778496   1.388906
    11  O    3.683886   2.413295   4.574193   1.373562   5.579086
    12  H    3.839032   2.441547   4.581900   1.923205   5.589401
    13  C    2.546013   1.506861   3.411223   2.528349   5.043175
    14  H    2.646536   2.155303   3.458016   3.428502   5.263663
    15  H    3.199899   2.171510   3.360715   2.918423   4.566436
    16  H    3.344205   2.171405   4.481600   2.822922   6.065621
    17  C    2.433858   2.837831   3.594209   2.432719   4.948879
    18  C    2.811283   2.456104   3.905079   1.409071   5.064995
    19  C    1.414537   2.453285   2.821639   2.784889   4.614330
    20  H    2.161171   3.429019   3.208562   3.869937   4.946450
    21  C    4.316898   3.828393   5.195474   2.530319   5.947855
    22  H    4.815222   4.023951   5.594275   2.629029   6.212053
    23  H    4.800224   4.494418   5.300973   3.289409   5.707966
    24  H    4.848442   4.452861   6.019362   3.226664   6.931554
    25  C    3.817694   4.346457   4.721778   3.817562   5.759512
    26  H    4.500852   4.854463   5.671942   4.159012   6.760420
    27  H    4.423139   4.855222   4.870190   4.193626   5.476445
    28  H    4.022781   4.850183   4.877871   4.590015   5.999274
    29  H    1.085871   2.154141   2.464858   3.381967   4.672673
                    6          7          8          9         10
     6  H    0.000000
     7  C    2.173512   0.000000
     8  H    2.655407   1.081252   0.000000
     9  S    3.608757   1.749017   2.498394   0.000000
    10  N    2.138739   2.331303   3.371300   2.580851   0.000000
    11  O    6.079285   6.083271   6.943422   5.601162   4.702380
    12  H    6.166770   5.886982   6.670100   5.318343   4.853363
    13  C    5.941843   4.942140   5.751835   3.762965   4.268386
    14  H    6.259982   4.950106   5.714664   3.487363   4.540056
    15  H    5.414131   4.364575   5.062497   3.426605   4.059934
    16  H    6.916059   5.987601   6.759829   4.837380   5.277664
    17  C    5.432394   5.816352   6.887605   5.311557   3.590045
    18  C    5.501700   5.905490   6.928211   5.484177   3.839283
    19  C    5.312612   5.237071   6.315306   4.426365   3.237203
    20  H    5.629927   5.538122   6.592777   4.716273   3.628975
    21  C    6.155089   6.930792   7.896027   6.761447   4.867287
    22  H    6.394882   7.117928   8.015604   6.998636   5.274072
    23  H    5.738915   6.835981   7.769580   6.912302   4.723339
    24  H    7.158565   7.909118   8.901613   7.627552   5.777720
    25  C    6.044264   6.790805   7.840866   6.485172   4.471602
    26  H    7.029146   7.784659   8.837995   7.422339   5.469716
    27  H    5.569014   6.647243   7.647230   6.629168   4.329792
    28  H    6.324407   6.970987   8.015659   6.592987   4.720309
    29  H    5.652678   4.706581   5.679309   3.292312   3.584506
                   11         12         13         14         15
    11  O    0.000000
    12  H    0.964520   0.000000
    13  C    2.887147   2.371729   0.000000
    14  H    3.955502   3.458998   1.092375   0.000000
    15  H    3.012427   2.327951   1.099391   1.756626   0.000000
    16  H    2.801541   2.180248   1.098056   1.763121   1.776608
    17  C    3.664050   4.350395   4.344692   4.845055   4.863537
    18  C    2.368405   3.176208   3.836559   4.609141   4.238016
    19  C    4.157088   4.598571   3.839339   4.046040   4.453598
    20  H    5.242230   5.666960   4.701204   4.716658   5.323883
    21  C    2.788595   3.740009   5.055872   5.943690   5.327715
    22  H    2.317809   3.237416   5.003287   5.999031   5.144234
    23  H    3.616063   4.518632   5.767833   6.624150   5.923181
    24  H    3.481595   4.440781   5.698106   6.537399   6.116053
    25  C    4.899110   5.688554   5.853302   6.328145   6.349112
    26  H    5.076451   5.938538   6.334402   6.868561   6.903372
    27  H    5.147020   5.955996   6.337345   6.885372   6.668698
    28  H    5.785034   6.505914   6.331458   6.641411   6.882414
    29  H    4.557490   4.553965   2.740715   2.385041   3.443867
                   16         17         18         19         20
    16  H    0.000000
    17  C    4.863134   0.000000
    18  C    4.175517   1.415453   0.000000
    19  C    4.519142   1.386148   2.423121   0.000000
    20  H    5.420695   2.146391   3.410097   1.085156   0.000000
    21  C    5.224808   2.539830   1.506608   3.807145   4.683696
    22  H    5.034376   3.446103   2.158895   4.579986   5.544351
    23  H    6.074304   2.815074   2.155912   4.127989   4.875877
    24  H    5.744745   2.889645   2.160095   4.189617   4.964712
    25  C    6.343280   1.508706   2.531575   2.512256   2.716964
    26  H    6.659171   2.169537   2.829181   3.270564   3.526991
    27  H    6.885149   2.160118   2.870453   3.214000   3.436599
    28  H    6.893083   2.158634   3.441660   2.610465   2.354688
    29  H    3.555496   3.400077   3.882928   2.160517   2.480380
                   21         22         23         24         25
    21  C    0.000000
    22  H    1.089274   0.000000
    23  H    1.095970   1.771990   0.000000
    24  H    1.097441   1.769631   1.759911   0.000000
    25  C    2.936798   4.014189   2.822459   2.957827   0.000000
    26  H    2.853305   3.920451   2.875554   2.467931   1.096075
    27  H    2.940336   3.967649   2.421059   3.140603   1.096419
    28  H    4.018779   5.089690   3.888044   3.996556   1.092731
    29  H    5.389439   5.871301   5.878988   5.871873   4.670432
                   26         27         28         29
    26  H    0.000000
    27  H    1.760871   0.000000
    28  H    1.771517   1.767720   0.000000
    29  H    5.358048   5.327589   4.682161   0.000000
 Symmetry turned off by external request.
 Stoichiometry    C12H14NOS(2)
 Framework group  C1[X(C12H14NOS)]
 Deg. of freedom    81
 Full point group                 C1      NOp   1
 Rotational constants (GHZ):           0.8240999           0.3753399           0.3279127
 Standard basis: 6-31G(d,p) (6D, 7F)
   299 basis functions,   542 primitive gaussians,   299 cartesian basis functions
    59 alpha electrons       58 beta electrons
       nuclear repulsion energy      1075.8131853458 Hartrees.
 NAtoms=   29 NActive=   29 NUniq=   29 SFac= 1.00D+00 NAtFMM=   60 NAOKFM=F Big=F
 Integral buffers will be    131072 words long.
 Raffenetti 2 integral format.
 Two-electron integral symmetry is turned off.
 Nuclear repulsion after empirical dispersion term =     1075.7852830497 Hartrees.
 One-electron integrals computed using PRISM.
 NBasis=   299 RedAO= T EigKep=  4.09D-04  NBF=   299
 NBsUse=   299 1.00D-06 EigRej= -1.00D+00 NBFU=   299
 Initial guess from the checkpoint file:  "/scratch/jcuzick/job_48780647/Gau-2329488.chk"
 B after Tr=    -0.059246   -0.079168    0.011167
         Rot=    0.999939   -0.004358    0.005082   -0.008768 Ang=  -1.26 deg.
 Initial guess <Sx>= 0.0000 <Sy>= 0.0000 <Sz>= 0.5000 <S**2>= 0.7844 S= 0.5171
 ExpMin= 1.17D-01 ExpMax= 2.19D+04 ExpMxC= 3.30D+03 IAcc=3 IRadAn=         5 AccDes= 0.00D+00
 Harris functional with IExCor=  402 and IRadAn=       5 diagonalized for initial guess.
 HarFok:  IExCor=  402 AccDes= 0.00D+00 IRadAn=         5 IDoV= 1 UseB2=F ITyADJ=14
 ICtDFT=  3500011 ScaDFX=  1.000000  1.000000  1.000000  1.000000
 FoFCou: FMM=F IPFlag=           0 FMFlag=      100000 FMFlg1=           0
         NFxFlg=           0 DoJE=T BraDBF=F KetDBF=T FulRan=T
         wScrn=  0.000000 ICntrl=       500 IOpCl=  0 I1Cent=   200000004 NGrid=           0
         NMat0=    1 NMatS0=      1 NMatT0=    0 NMatD0=    1 NMtDS0=    0 NMtDT0=    0
 Symmetry not used in FoFCou.
 Requested convergence on RMS density matrix=1.00D-08 within 128 cycles.
 Requested convergence on MAX density matrix=1.00D-06.
 Requested convergence on             energy=1.00D-06.
 No special actions if energy rises.
 Integral accuracy reduced to 1.0D-05 until final iterations.
 Initial convergence to 1.0D-05 achieved.  Increase integral accuracy.
 SCF Done:  E(UB3LYP) =  -993.824930764     A.U. after   20 cycles
            NFock= 20  Conv=0.47D-08     -V/T= 2.0070
 <Sx>= 0.0000 <Sy>= 0.0000 <Sz>= 0.5000 <S**2>= 0.7773 S= 0.5136
 <L.S>= 0.000000000000E+00
 Annihilation of the first spin contaminant:
 S**2 before annihilation     0.7773,   after     0.7506
 Calling FoFJK, ICntrl=      2127 FMM=F ISym2X=0 I1Cent= 0 IOpClX= 1 NMat=1 NMatS=1 NMatT=0.
 -------------------------------------------------------------------
 Center     Atomic                   Forces (Hartrees/Bohr)
 Number     Number              X              Y              Z
 -------------------------------------------------------------------
      1        6          -0.000162303    0.002138467   -0.001115260
      2        6          -0.000739812    0.000260812    0.000642917
      3        6          -0.000311797   -0.000639391    0.000540691
      4        6           0.000345902    0.000472851    0.000318974
      5        6          -0.000070899   -0.000319622    0.000081139
      6        1          -0.000001512   -0.000033708    0.000042059
      7        6           0.000181813   -0.000082116    0.000098343
      8        1           0.000042974    0.000003253    0.000041349
      9       16           0.000350199    0.000027453    0.000214823
     10        7           0.000186377   -0.000322729   -0.000109667
     11        8          -0.000034430   -0.000048636   -0.000021457
     12        1           0.000016616    0.000002646   -0.000014958
     13        6          -0.000139602   -0.000044582    0.000095535
     14        1           0.000049159   -0.000002909   -0.000000321
     15        1           0.000046110   -0.000052044   -0.000096046
     16        1           0.000079040   -0.000059347   -0.000000692
     17        6           0.000395226   -0.000047872   -0.000179609
     18        6          -0.000300962   -0.000226259   -0.000070398
     19        6          -0.000304556   -0.000676787   -0.000556749
     20        1          -0.000010585   -0.000000151   -0.000045735
     21        6          -0.000001361    0.000018331   -0.000006295
     22        1           0.000003857    0.000000542    0.000005840
     23        1          -0.000018030   -0.000018544   -0.000002105
     24        1          -0.000008504   -0.000006381   -0.000004776
     25        6           0.000019018   -0.000015204   -0.000008544
     26        1          -0.000001905    0.000001132    0.000000340
     27        1           0.000003395    0.000006132   -0.000005198
     28        1          -0.000006888    0.000004497    0.000000156
     29        1           0.000393460   -0.000339834    0.000155643
 -------------------------------------------------------------------
 Cartesian Forces:  Max     0.002138467 RMS     0.000341797

 GradGradGradGradGradGradGradGradGradGradGradGradGradGradGradGradGradGrad
 Berny optimization.
 FormGI is forming the generalized inverse of G from B-inverse, IUseBI=4.
 Internal  Forces:  Max     0.001657407 RMS     0.000209136
 Search for a saddle point.
 Step number   2 out of a maximum of  157
 All quantities printed in internal units (Hartrees-Bohrs-Radians)
 Swapping is turned off.
 Update second derivatives using D2CorX and points    1    2
 ITU=  0  0
     Eigenvalues ---   -0.03432  -0.00031   0.00050   0.00097   0.00249
     Eigenvalues ---    0.00361   0.00394   0.00929   0.01161   0.01398
     Eigenvalues ---    0.01468   0.01520   0.01707   0.01807   0.01924
     Eigenvalues ---    0.02552   0.03048   0.03302   0.03861   0.03917
     Eigenvalues ---    0.05132   0.05357   0.05764   0.05813   0.05822
     Eigenvalues ---    0.05869   0.05954   0.06017   0.06075   0.07065
     Eigenvalues ---    0.09208   0.11198   0.11944   0.12063   0.12187
     Eigenvalues ---    0.12212   0.12484   0.14472   0.14510   0.14576
     Eigenvalues ---    0.14701   0.14867   0.15053   0.15812   0.16952
     Eigenvalues ---    0.18976   0.19058   0.19337   0.20130   0.20510
     Eigenvalues ---    0.22126   0.23188   0.25015   0.27185   0.30122
     Eigenvalues ---    0.31345   0.32197   0.32555   0.32937   0.33206
     Eigenvalues ---    0.33461   0.33676   0.33957   0.34589   0.34622
     Eigenvalues ---    0.35102   0.35250   0.36054   0.36576   0.37013
     Eigenvalues ---    0.37379   0.38410   0.39601   0.41087   0.42929
     Eigenvalues ---    0.45250   0.48398   0.48611   0.51400   0.53557
     Eigenvalues ---    0.58244
 Eigenvectors required to have negative eigenvalues:
                          R2        D18       D6        D17       D5
   1                   -0.90227  -0.16295   0.15920  -0.14917   0.14756
                          D13       D3        R1        R3        A5
   1                    0.09580  -0.09501   0.08953   0.08690   0.08452
 RFO step:  Lambda0=8.893285157D-05 Lambda=-3.20914759D-04.
 Linear search not attempted -- option 19 set.
 Iteration  1 RMS(Cart)=  0.11003818 RMS(Int)=  0.02311397
 Iteration  2 RMS(Cart)=  0.05372776 RMS(Int)=  0.00220319
 Iteration  3 RMS(Cart)=  0.00326426 RMS(Int)=  0.00037926
 Iteration  4 RMS(Cart)=  0.00001112 RMS(Int)=  0.00037924
 Iteration  5 RMS(Cart)=  0.00000001 RMS(Int)=  0.00037924
 Variable       Old X    -DE/DX   Delta X   Delta X   Delta X     New X
                                 (Linear)    (Quad)   (Total)
    R1        2.68077   0.00078   0.00000  -0.00151  -0.00144   2.67933
    R2        4.19190  -0.00166   0.00000   0.05339   0.05339   4.24529
    R3        2.67309   0.00079   0.00000  -0.00386  -0.00380   2.66929
    R4        2.05200   0.00020   0.00000  -0.00008  -0.00008   2.05192
    R5        2.63984  -0.00021   0.00000   0.00198   0.00198   2.64181
    R6        2.84755  -0.00012   0.00000   0.00013   0.00013   2.84768
    R7        3.34483  -0.00010   0.00000   0.00012   0.00049   3.34533
    R8        2.41803  -0.00029   0.00000  -0.00180  -0.00142   2.41661
    R9        2.59566  -0.00002   0.00000   0.00042   0.00042   2.59607
   R10        2.66276   0.00052   0.00000  -0.00089  -0.00095   2.66181
   R11        2.04845  -0.00002   0.00000  -0.00014  -0.00014   2.04831
   R12        2.57504   0.00029   0.00000  -0.00061  -0.00103   2.57401
   R13        2.62465  -0.00031   0.00000   0.00075   0.00067   2.62532
   R14        2.04327  -0.00002   0.00000  -0.00000  -0.00000   2.04326
   R15        3.30516  -0.00006   0.00000   0.00166   0.00141   3.30657
   R16        1.82268  -0.00000   0.00000   0.00001   0.00001   1.82269
   R17        2.06429   0.00004   0.00000   0.00018   0.00018   2.06447
   R18        2.07755  -0.00006   0.00000  -0.00066  -0.00066   2.07688
   R19        2.07503   0.00001   0.00000   0.00018   0.00018   2.07520
   R20        2.67482   0.00036   0.00000  -0.00001  -0.00008   2.67474
   R21        2.61944  -0.00021   0.00000   0.00049   0.00049   2.61993
   R22        2.85104   0.00001   0.00000  -0.00035  -0.00035   2.85069
   R23        2.84708   0.00002   0.00000   0.00044   0.00044   2.84752
   R24        2.05065   0.00003   0.00000  -0.00015  -0.00015   2.05050
   R25        2.05843   0.00000   0.00000   0.00006   0.00006   2.05848
   R26        2.07108   0.00001   0.00000  -0.00007  -0.00007   2.07101
   R27        2.07386   0.00000   0.00000  -0.00011  -0.00011   2.07376
   R28        2.07128  -0.00000   0.00000  -0.00004  -0.00004   2.07124
   R29        2.07193   0.00000   0.00000  -0.00009  -0.00009   2.07184
   R30        2.06496  -0.00001   0.00000  -0.00010  -0.00010   2.06486
    A1        1.70922   0.00005   0.00000  -0.01495  -0.01500   1.69421
    A2        2.09399   0.00001   0.00000   0.00327   0.00303   2.09703
    A3        2.06038   0.00006   0.00000   0.00387   0.00374   2.06412
    A4        1.73730  -0.00025   0.00000  -0.02355  -0.02357   1.71372
    A5        1.56576   0.00032   0.00000   0.00999   0.01006   1.57582
    A6        2.07637  -0.00011   0.00000   0.00295   0.00282   2.07919
    A7        2.05624  -0.00012   0.00000  -0.00135  -0.00124   2.05500
    A8        2.11109   0.00006   0.00000   0.00338   0.00327   2.11436
    A9        2.11245   0.00006   0.00000  -0.00075  -0.00087   2.11159
   A10        2.13340  -0.00041   0.00000  -0.02694  -0.02939   2.10401
   A11        2.10350  -0.00024   0.00000  -0.00771  -0.01049   2.09301
   A12        2.00135   0.00065   0.00000   0.00096  -0.00050   2.00084
   A13        2.11470   0.00003   0.00000  -0.00003  -0.00004   2.11466
   A14        2.13210   0.00006   0.00000  -0.00086  -0.00083   2.13127
   A15        2.03620  -0.00008   0.00000   0.00092   0.00091   2.03711
   A16        2.18076   0.00005   0.00000   0.00052   0.00056   2.18132
   A17        2.08085  -0.00002   0.00000  -0.00015  -0.00011   2.08074
   A18        2.02158  -0.00003   0.00000  -0.00037  -0.00046   2.02112
   A19        2.24084  -0.00004   0.00000   0.00047   0.00060   2.24145
   A20        1.91004   0.00020   0.00000   0.00023  -0.00005   1.90999
   A21        2.13227  -0.00016   0.00000  -0.00071  -0.00057   2.13170
   A22        1.54352  -0.00045   0.00000  -0.00094  -0.00015   1.54337
   A23        1.94793  -0.00037   0.00000  -0.00006   0.00096   1.94889
   A24        1.91004  -0.00004   0.00000   0.00004   0.00004   1.91008
   A25        1.93785  -0.00001   0.00000  -0.00041  -0.00042   1.93743
   A26        1.95314  -0.00008   0.00000   0.00263   0.00263   1.95577
   A27        1.95444  -0.00002   0.00000  -0.00207  -0.00207   1.95237
   A28        1.85948   0.00002   0.00000  -0.00097  -0.00097   1.85851
   A29        1.87107  -0.00001   0.00000  -0.00122  -0.00122   1.86986
   A30        1.88315   0.00011   0.00000   0.00199   0.00199   1.88514
   A31        2.08986   0.00002   0.00000  -0.00014  -0.00013   2.08973
   A32        2.09268   0.00002   0.00000   0.00023   0.00023   2.09291
   A33        2.10063  -0.00004   0.00000  -0.00011  -0.00012   2.10051
   A34        2.07558   0.00011   0.00000   0.00074   0.00069   2.07627
   A35        2.10100  -0.00006   0.00000  -0.00038  -0.00036   2.10064
   A36        2.10657  -0.00004   0.00000  -0.00037  -0.00034   2.10624
   A37        2.10639  -0.00006   0.00000  -0.00135  -0.00122   2.10517
   A38        2.07837   0.00005   0.00000   0.00106   0.00098   2.07934
   A39        2.09587   0.00001   0.00000  -0.00018  -0.00026   2.09561
   A40        1.94654  -0.00001   0.00000   0.00018   0.00018   1.94671
   A41        1.93520   0.00003   0.00000  -0.00023  -0.00023   1.93497
   A42        1.93949   0.00001   0.00000  -0.00003  -0.00003   1.93945
   A43        1.89133  -0.00001   0.00000   0.00034   0.00034   1.89167
   A44        1.88579  -0.00000   0.00000  -0.00022  -0.00022   1.88556
   A45        1.86249  -0.00002   0.00000  -0.00003  -0.00003   1.86246
   A46        1.95163   0.00000   0.00000   0.00072   0.00072   1.95235
   A47        1.93802  -0.00000   0.00000  -0.00135  -0.00135   1.93667
   A48        1.93986  -0.00000   0.00000  -0.00028  -0.00028   1.93958
   A49        1.86508   0.00000   0.00000   0.00096   0.00096   1.86604
   A50        1.88610   0.00000   0.00000   0.00043   0.00043   1.88653
   A51        1.87977  -0.00000   0.00000  -0.00043  -0.00043   1.87934
    D1        1.67964  -0.00023   0.00000  -0.03273  -0.03274   1.64690
    D2       -1.37417  -0.00027   0.00000  -0.04916  -0.04917  -1.42334
    D3       -0.16822   0.00004   0.00000   0.00396   0.00397  -0.16424
    D4        3.06116  -0.00000   0.00000  -0.01248  -0.01246   3.04869
    D5       -2.96422   0.00018   0.00000  -0.02872  -0.02875  -2.99297
    D6        0.26515   0.00013   0.00000  -0.04515  -0.04518   0.21996
    D7        1.39415   0.00008   0.00000  -0.34637  -0.34607   1.04808
    D8       -1.41290  -0.00003   0.00000  -0.22487  -0.22560  -1.63850
    D9       -2.75378   0.00004   0.00000  -0.35361  -0.35288  -3.10666
   D10        0.72236  -0.00008   0.00000  -0.23212  -0.23242   0.48994
   D11       -0.67059  -0.00003   0.00000  -0.35080  -0.35029  -1.02089
   D12        2.80554  -0.00015   0.00000  -0.22931  -0.22982   2.57572
   D13        0.16275  -0.00003   0.00000  -0.00046  -0.00048   0.16227
   D14       -3.05564  -0.00002   0.00000  -0.00761  -0.00763  -3.06327
   D15       -1.66947   0.00007   0.00000   0.03152   0.03151  -1.63796
   D16        1.39532   0.00008   0.00000   0.02438   0.02437   1.41969
   D17        2.95561  -0.00014   0.00000   0.03269   0.03270   2.98832
   D18       -0.26278  -0.00012   0.00000   0.02554   0.02556  -0.23722
   D19       -3.08261  -0.00002   0.00000  -0.00466  -0.00464  -3.08725
   D20        0.08003  -0.00002   0.00000  -0.00695  -0.00694   0.07310
   D21       -0.02887   0.00003   0.00000   0.01201   0.01198  -0.01689
   D22        3.13377   0.00002   0.00000   0.00971   0.00969  -3.13972
   D23       -0.21277   0.00001   0.00000   0.01622   0.01623  -0.19654
   D24        1.86251  -0.00002   0.00000   0.01646   0.01647   1.87897
   D25       -2.30362   0.00005   0.00000   0.01944   0.01945  -2.28417
   D26        3.01944  -0.00002   0.00000  -0.00072  -0.00073   3.01871
   D27       -1.18847  -0.00005   0.00000  -0.00048  -0.00049  -1.18896
   D28        0.92859   0.00002   0.00000   0.00250   0.00249   0.93108
   D29       -2.84614   0.00006   0.00000   0.11078   0.11043  -2.73571
   D30       -0.02105   0.00002   0.00000  -0.00532  -0.00547  -0.02652
   D31        2.85909  -0.00011   0.00000  -0.11112  -0.11197   2.74712
   D32        0.02809  -0.00003   0.00000   0.00667   0.00689   0.03498
   D33        0.18100  -0.00000   0.00000  -0.01296  -0.01296   0.16804
   D34       -2.98054   0.00001   0.00000  -0.01080  -0.01080  -2.99134
   D35        0.01725   0.00001   0.00000   0.00582   0.00582   0.02307
   D36       -3.13222   0.00001   0.00000   0.00479   0.00479  -3.12743
   D37       -3.10418   0.00000   0.00000   0.00363   0.00362  -3.10056
   D38        0.02953  -0.00000   0.00000   0.00260   0.00260   0.03213
   D39       -0.00498   0.00000   0.00000  -0.00175  -0.00180  -0.00678
   D40       -3.13776  -0.00002   0.00000  -0.00026  -0.00031  -3.13807
   D41        3.13915  -0.00000   0.00000  -0.00069  -0.00061   3.13854
   D42        0.00637  -0.00002   0.00000   0.00080   0.00088   0.00726
   D43        3.12142   0.00004   0.00000  -0.00387  -0.00397   3.11745
   D44       -0.02256   0.00005   0.00000  -0.00487  -0.00509  -0.02765
   D45        0.00727  -0.00000   0.00000   0.00227   0.00231   0.00958
   D46       -3.12616  -0.00002   0.00000   0.00364   0.00368  -3.12248
   D47       -0.02714  -0.00001   0.00000  -0.00208  -0.00208  -0.02923
   D48        3.12236  -0.00001   0.00000  -0.00105  -0.00105   3.12130
   D49        3.11888  -0.00000   0.00000   0.00204   0.00204   3.12091
   D50       -0.01481   0.00000   0.00000   0.00307   0.00307  -0.01174
   D51       -0.06240   0.00002   0.00000  -0.00031  -0.00031  -0.06271
   D52       -3.12643   0.00001   0.00000   0.00686   0.00685  -3.11958
   D53        3.07475   0.00001   0.00000  -0.00445  -0.00445   3.07029
   D54        0.01072  -0.00000   0.00000   0.00272   0.00271   0.01343
   D55       -0.97066  -0.00000   0.00000   0.00440   0.00440  -0.96626
   D56        1.11082   0.00000   0.00000   0.00518   0.00518   1.11600
   D57       -3.08015  -0.00001   0.00000   0.00355   0.00355  -3.07660
   D58        2.17539   0.00001   0.00000   0.00854   0.00854   2.18393
   D59       -2.02631   0.00001   0.00000   0.00933   0.00932  -2.01699
   D60        0.06590   0.00000   0.00000   0.00769   0.00769   0.07360
   D61        0.09944  -0.00000   0.00000   0.00166   0.00166   0.10110
   D62        2.20889   0.00000   0.00000   0.00205   0.00205   2.21094
   D63       -2.00589   0.00000   0.00000   0.00185   0.00185  -2.00405
   D64       -3.05017  -0.00001   0.00000   0.00062   0.00062  -3.04955
   D65       -0.94073  -0.00000   0.00000   0.00101   0.00101  -0.93972
   D66        1.12767  -0.00000   0.00000   0.00081   0.00081   1.12848
         Item               Value     Threshold  Converged?
 Maximum Force            0.001657     0.000450     NO 
 RMS     Force            0.000209     0.000300     YES
 Maximum Displacement     0.804546     0.001800     NO 
 RMS     Displacement     0.161107     0.001200     NO 
 Predicted change in Energy=-1.012711D-04
 GradGradGradGradGradGradGradGradGradGradGradGradGradGradGradGradGradGrad

                          Input orientation:                          
 ---------------------------------------------------------------------
 Center     Atomic      Atomic             Coordinates (Angstroms)
 Number     Number       Type             X           Y           Z
 ---------------------------------------------------------------------
      1          6           0        4.845274   -2.129199    1.834099
      2          6           0        3.986292   -1.826277    2.920679
      3          6           0        4.083647   -0.549024    0.430609
      4          6           0        2.795181   -2.549937    3.029963
      5          6           0        2.478985    0.299866   -0.826971
      6          1           0        1.688404    0.200926   -1.561869
      7          6           0        2.867748    1.471468   -0.251168
      8          1           0        2.478484    2.465698   -0.421694
      9         16           0        4.177115    1.163809    0.868016
     10          7           0        3.166921   -0.834309   -0.414135
     11          8           0        1.882195   -2.271272    4.017931
     12          1           0        2.132353   -1.454019    4.464954
     13          6           0        4.299699   -0.699876    3.871377
     14          1           0        5.316810   -0.331068    3.719860
     15          1           0        3.631229    0.160412    3.726673
     16          1           0        4.223271   -1.016644    4.920067
     17          6           0        3.409354   -3.968982    1.151841
     18          6           0        2.479196   -3.608346    2.155900
     19          6           0        4.592341   -3.257605    1.022952
     20          1           0        5.299988   -3.516284    0.242113
     21          6           0        1.175343   -4.350154    2.298251
     22          1           0        0.535865   -3.893712    3.052778
     23          1           0        0.630236   -4.367362    1.347657
     24          1           0        1.344583   -5.396097    2.583930
     25          6           0        3.104721   -5.116531    0.221270
     26          1           0        2.886056   -6.039869    0.769870
     27          1           0        2.226449   -4.897386   -0.397314
     28          1           0        3.943677   -5.311881   -0.450992
     29          1           0        5.832081   -1.676486    1.817033
 ---------------------------------------------------------------------
                    Distance matrix (angstroms):
                    1          2          3          4          5
     1  C    0.000000
     2  C    1.417839   0.000000
     3  C    2.246512   2.800233   0.000000
     4  C    2.410392   1.397988   3.524265   0.000000
     5  C    4.310565   4.564793   2.208407   4.805965   0.000000
     6  H    5.189211   5.429832   3.204619   5.465998   1.083920
     7  C    4.606924   4.710295   2.454713   5.190644   1.362108
     8  H    5.639448   5.644997   3.520159   6.096789   2.203425
     9  S    3.496234   3.631866   1.770270   4.513941   2.550103
    10  N    3.090011   3.574402   1.278814   3.865667   1.389259
    11  O    3.683631   2.414375   4.547682   1.373783   5.517245
    12  H    3.838907   2.441404   4.571926   1.923429   5.585762
    13  C    2.547767   1.506928   3.450844   2.528692   5.137019
    14  H    2.647964   2.155138   3.519570   3.428986   5.396759
    15  H    3.209059   2.173162   3.401768   2.920681   4.699233
    16  H    3.338842   2.170074   4.515906   2.821865   6.148511
    17  C    2.431490   2.837750   3.559630   2.432743   4.796285
    18  C    2.808871   2.456011   3.861392   1.408567   4.916466
    19  C    1.412529   2.453032   2.818875   2.785439   4.532558
    20  H    2.159906   3.428795   3.212422   3.870399   4.864566
    21  C    4.314681   3.828682   5.137598   2.529834   5.752320
    22  H    4.813490   4.024572   5.536197   2.628833   6.034423
    23  H    4.797140   4.493843   5.229411   3.289404   5.470822
    24  H    4.846618   4.453722   5.969371   3.225493   6.735362
    25  C    3.815088   4.346233   4.675922   3.817325   5.552270
    26  H    4.501606   4.857041   5.630160   4.158834   6.550408
    27  H    4.415915   4.851580   4.800302   4.192874   5.221092
    28  H    4.020446   4.849681   4.845784   4.589599   5.811917
    29  H    1.085831   2.155785   2.500073   3.384801   4.705314
                    6          7          8          9         10
     6  H    0.000000
     7  C    2.173261   0.000000
     8  H    2.655827   1.081249   0.000000
     9  S    3.609039   1.749763   2.498723   0.000000
    10  N    2.138929   2.330808   3.371060   2.580092   0.000000
    11  O    6.106021   5.762346   6.519564   5.195036   4.833073
    12  H    6.265663   5.598312   6.274019   4.896125   5.025921
    13  C    6.095119   4.874485   5.636324   3.536739   4.434735
    14  H    6.430009   5.001611   5.747214   3.415637   4.686703
    15  H    5.634260   4.257346   4.883862   3.078427   4.283847
    16  H    7.065658   5.896594   6.611006   4.601698   5.440849
    17  C    5.264412   5.644491   6.689368   5.197649   3.512440
    18  C    5.381237   5.634666   6.598333   5.226378   3.843609
    19  C    5.203421   5.192469   6.269896   4.443571   3.157437
    20  H    5.487764   5.571068   6.647228   4.853439   3.489073
    21  C    5.989666   6.576858   7.453330   6.438943   4.866682
    22  H    6.276096   6.718549   7.502522   6.603817   5.319952
    23  H    5.518544   6.454040   7.296392   6.588191   4.692670
    24  H    6.973703   7.584277   8.492781   7.348467   5.754930
    25  C    5.784539   6.609167   7.635167   6.403981   4.329554
    26  H    6.768966   7.580438   8.598291   7.319114   5.345897
    27  H    5.257230   6.402728   7.367437   6.491859   4.170536
    28  H    6.058989   6.871053   7.914442   6.612778   4.544597
    29  H    5.666720   4.793156   5.780675   3.421523   3.576374
                   11         12         13         14         15
    11  O    0.000000
    12  H    0.964526   0.000000
    13  C    2.887056   2.370329   0.000000
    14  H    3.955984   3.457882   1.092469   0.000000
    15  H    3.009492   2.323377   1.099040   1.755786   0.000000
    16  H    2.805098   2.184116   1.098150   1.762481   1.777685
    17  C    3.664547   4.351148   4.344611   4.844329   4.871436
    18  C    2.368826   3.176972   3.836182   4.608532   4.242410
    19  C    4.157841   4.599114   3.839420   4.045095   4.462812
    20  H    5.242916   5.667384   4.701520   4.715995   5.333387
    21  C    2.789030   3.741399   5.055775   5.943549   5.330758
    22  H    2.318715   3.239617   5.003713   5.999572   5.145031
    23  H    3.618199   4.523435   5.769279   6.624424   5.930128
    24  H    3.479931   4.438334   5.696028   6.536317   6.116324
    25  C    4.899459   5.689318   5.853042   6.327252   6.356980
    26  H    5.075427   5.937317   6.335082   6.870328   6.909519
    27  H    5.148725   5.958798   6.335549   6.881330   6.675477
    28  H    5.785005   6.506190   6.330894   6.640030   6.891771
    29  H    4.560627   4.555104   2.742680   2.386714   3.444513
                   16         17         18         19         20
    16  H    0.000000
    17  C    4.855748   0.000000
    18  C    4.171251   1.415411   0.000000
    19  C    4.510613   1.386408   2.423215   0.000000
    20  H    5.412096   2.146401   3.409975   1.085075   0.000000
    21  C    5.222650   2.539755   1.506843   3.807352   4.683561
    22  H    5.035996   3.446181   2.159250   4.580374   5.544291
    23  H    6.074482   2.814347   2.155926   4.127380   4.873720
    24  H    5.737943   2.889778   2.160234   4.190195   4.966189
    25  C    6.335528   1.508520   2.531540   2.512232   2.716693
    26  H    6.651697   2.169865   2.828236   3.273598   3.531865
    27  H    6.879099   2.158953   2.871308   3.209903   3.429716
    28  H    6.882987   2.158229   3.441311   2.610234   2.354600
    29  H    3.557033   3.401121   3.884424   2.160430   2.479587
                   21         22         23         24         25
    21  C    0.000000
    22  H    1.089303   0.000000
    23  H    1.095932   1.772199   0.000000
    24  H    1.097384   1.769464   1.759818   0.000000
    25  C    2.936611   4.013943   2.820120   2.959460   0.000000
    26  H    2.849145   3.916766   2.867026   2.466048   1.096051
    27  H    2.944547   3.970965   2.423580   3.148684   1.096373
    28  H    4.018324   5.089281   3.886662   3.996640   1.092678
    29  H    5.391223   5.873079   5.875400   5.878884   4.671066
                   26         27         28         29
    26  H    0.000000
    27  H    1.761439   0.000000
    28  H    1.771731   1.767360   0.000000
    29  H    5.367934   5.317717   4.682531   0.000000
 Symmetry turned off by external request.
 Stoichiometry    C12H14NOS(2)
 Framework group  C1[X(C12H14NOS)]
 Deg. of freedom    81
 Full point group                 C1      NOp   1
 Rotational constants (GHZ):           0.7919382           0.4009257           0.3431894
 Standard basis: 6-31G(d,p) (6D, 7F)
   299 basis functions,   542 primitive gaussians,   299 cartesian basis functions
    59 alpha electrons       58 beta electrons
       nuclear repulsion energy      1082.8200083643 Hartrees.
 NAtoms=   29 NActive=   29 NUniq=   29 SFac= 1.00D+00 NAtFMM=   60 NAOKFM=F Big=F
 Integral buffers will be    131072 words long.
 Raffenetti 2 integral format.
 Two-electron integral symmetry is turned off.
 Nuclear repulsion after empirical dispersion term =     1082.7913914652 Hartrees.
 One-electron integrals computed using PRISM.
 NBasis=   299 RedAO= T EigKep=  4.01D-04  NBF=   299
 NBsUse=   299 1.00D-06 EigRej= -1.00D+00 NBFU=   299
 Initial guess from the checkpoint file:  "/scratch/jcuzick/job_48780647/Gau-2329488.chk"
 B after Tr=    -0.085023   -0.110732    0.020163
         Rot=    0.999939   -0.003417    0.003863   -0.009808 Ang=  -1.27 deg.
 Initial guess <Sx>= 0.0000 <Sy>= 0.0000 <Sz>= 0.5000 <S**2>= 0.7777 S= 0.5137
 ExpMin= 1.17D-01 ExpMax= 2.19D+04 ExpMxC= 3.30D+03 IAcc=3 IRadAn=         5 AccDes= 0.00D+00
 Harris functional with IExCor=  402 and IRadAn=       5 diagonalized for initial guess.
 HarFok:  IExCor=  402 AccDes= 0.00D+00 IRadAn=         5 IDoV= 1 UseB2=F ITyADJ=14
 ICtDFT=  3500011 ScaDFX=  1.000000  1.000000  1.000000  1.000000
 FoFCou: FMM=F IPFlag=           0 FMFlag=      100000 FMFlg1=           0
         NFxFlg=           0 DoJE=T BraDBF=F KetDBF=T FulRan=T
         wScrn=  0.000000 ICntrl=       500 IOpCl=  0 I1Cent=   200000004 NGrid=           0
         NMat0=    1 NMatS0=      1 NMatT0=    0 NMatD0=    1 NMtDS0=    0 NMtDT0=    0
 Symmetry not used in FoFCou.
 Requested convergence on RMS density matrix=1.00D-08 within 128 cycles.
 Requested convergence on MAX density matrix=1.00D-06.
 Requested convergence on             energy=1.00D-06.
 No special actions if energy rises.
 Integral accuracy reduced to 1.0D-05 until final iterations.
 Initial convergence to 1.0D-05 achieved.  Increase integral accuracy.
 SCF Done:  E(UB3LYP) =  -993.824645747     A.U. after   19 cycles
            NFock= 19  Conv=0.90D-08     -V/T= 2.0070
 <Sx>= 0.0000 <Sy>= 0.0000 <Sz>= 0.5000 <S**2>= 0.7748 S= 0.5123
 <L.S>= 0.000000000000E+00
 Annihilation of the first spin contaminant:
 S**2 before annihilation     0.7748,   after     0.7505
 Calling FoFJK, ICntrl=      2127 FMM=F ISym2X=0 I1Cent= 0 IOpClX= 1 NMat=1 NMatS=1 NMatT=0.
 -------------------------------------------------------------------
 Center     Atomic                   Forces (Hartrees/Bohr)
 Number     Number              X              Y              Z
 -------------------------------------------------------------------
      1        6           0.000165921    0.000017701    0.000494363
      2        6           0.000155538   -0.000167596   -0.000082485
      3        6          -0.001469460    0.000731884   -0.000257024
      4        6           0.000001251    0.000357457    0.000213429
      5        6           0.000053560   -0.000323266   -0.000213218
      6        1          -0.000007890   -0.000047596    0.000017407
      7        6           0.000347976    0.000039371    0.000124073
      8        1           0.000027226    0.000005131    0.000027019
      9       16           0.000446157    0.000775340   -0.000671870
     10        7           0.000038393   -0.000231160   -0.000023353
     11        8           0.000112806   -0.000106262   -0.000112459
     12        1          -0.000007663    0.000055495   -0.000058628
     13        6          -0.000080283   -0.000261122    0.000433249
     14        1           0.000143280   -0.000061937   -0.000010899
     15        1          -0.000163170   -0.000312106    0.000059766
     16        1           0.000103385   -0.000066290   -0.000010255
     17        6          -0.000208458   -0.000169540    0.000136851
     18        6           0.000108582   -0.000199402   -0.000228029
     19        6           0.000223892    0.000238491    0.000043961
     20        1          -0.000037522    0.000010978   -0.000024302
     21        6          -0.000011840    0.000010725    0.000033866
     22        1           0.000004760    0.000009858   -0.000007603
     23        1          -0.000018167   -0.000024604   -0.000001580
     24        1           0.000007079    0.000006448   -0.000013730
     25        6           0.000018446   -0.000015521   -0.000011757
     26        1          -0.000009518    0.000010813   -0.000005345
     27        1          -0.000005101   -0.000027373   -0.000028570
     28        1          -0.000014470    0.000012126   -0.000001164
     29        1           0.000075291   -0.000268042    0.000178286
 -------------------------------------------------------------------
 Cartesian Forces:  Max     0.001469460 RMS     0.000257332

 GradGradGradGradGradGradGradGradGradGradGradGradGradGradGradGradGradGrad
 Berny optimization.
 FormGI is forming the generalized inverse of G from B-inverse, IUseBI=4.
 Internal  Forces:  Max     0.001553938 RMS     0.000335851
 Search for a saddle point.
 Step number   3 out of a maximum of  157
 All quantities printed in internal units (Hartrees-Bohrs-Radians)
 Swapping is turned off.
 Update second derivatives using D2CorX and points    2    3
 ITU=  0  0  0
     Eigenvalues ---   -0.03444   0.00038   0.00052   0.00108   0.00249
     Eigenvalues ---    0.00361   0.00474   0.00930   0.01169   0.01400
     Eigenvalues ---    0.01468   0.01520   0.01707   0.01807   0.01925
     Eigenvalues ---    0.02552   0.03047   0.03311   0.03853   0.03915
     Eigenvalues ---    0.05127   0.05343   0.05765   0.05822   0.05841
     Eigenvalues ---    0.05877   0.05975   0.06017   0.06076   0.07058
     Eigenvalues ---    0.09208   0.11197   0.11942   0.12060   0.12183
     Eigenvalues ---    0.12209   0.12483   0.14472   0.14510   0.14577
     Eigenvalues ---    0.14701   0.14861   0.15048   0.15812   0.16952
     Eigenvalues ---    0.18956   0.19058   0.19337   0.20129   0.20505
     Eigenvalues ---    0.22050   0.23191   0.25015   0.27181   0.30122
     Eigenvalues ---    0.31345   0.32197   0.32555   0.32937   0.33206
     Eigenvalues ---    0.33461   0.33676   0.33957   0.34589   0.34622
     Eigenvalues ---    0.35102   0.35250   0.36054   0.36575   0.37012
     Eigenvalues ---    0.37379   0.38410   0.39600   0.41018   0.42928
     Eigenvalues ---    0.45248   0.48367   0.48611   0.51399   0.53557
     Eigenvalues ---    0.58234
 Eigenvectors required to have negative eigenvalues:
                          R2        D18       D6        D17       D5
   1                    0.90221   0.16373  -0.16135   0.15049  -0.14871
                          D13       D3        R1        R3        A5
   1                   -0.09562   0.09503  -0.08886  -0.08633  -0.08318
 RFO step:  Lambda0=3.379960946D-05 Lambda=-6.53969844D-04.
 Linear search not attempted -- option 19 set.
 Iteration  1 RMS(Cart)=  0.08395682 RMS(Int)=  0.00310166
 Iteration  2 RMS(Cart)=  0.00659288 RMS(Int)=  0.00043336
 Iteration  3 RMS(Cart)=  0.00002336 RMS(Int)=  0.00043324
 Iteration  4 RMS(Cart)=  0.00000001 RMS(Int)=  0.00043324
 Variable       Old X    -DE/DX   Delta X   Delta X   Delta X     New X
                                 (Linear)    (Quad)   (Total)
    R1        2.67933   0.00008   0.00000   0.00053   0.00053   2.67986
    R2        4.24529   0.00148   0.00000  -0.01364  -0.01364   4.23165
    R3        2.66929   0.00000   0.00000   0.00254   0.00254   2.67183
    R4        2.05192  -0.00005   0.00000   0.00015   0.00015   2.05207
    R5        2.64181  -0.00005   0.00000  -0.00100  -0.00100   2.64082
    R6        2.84768  -0.00023   0.00000  -0.00040  -0.00040   2.84728
    R7        3.34533   0.00050   0.00000  -0.00117  -0.00077   3.34455
    R8        2.41661  -0.00003   0.00000  -0.00079  -0.00040   2.41621
    R9        2.59607  -0.00020   0.00000  -0.00018  -0.00018   2.59589
   R10        2.66181   0.00017   0.00000   0.00112   0.00112   2.66293
   R11        2.04831  -0.00000   0.00000   0.00002   0.00002   2.04833
   R12        2.57401   0.00025   0.00000   0.00211   0.00166   2.57568
   R13        2.62532  -0.00025   0.00000  -0.00042  -0.00051   2.62481
   R14        2.04326  -0.00001   0.00000   0.00003   0.00003   2.04330
   R15        3.30657  -0.00019   0.00000  -0.00029  -0.00055   3.30602
   R16        1.82269   0.00002   0.00000   0.00006   0.00006   1.82275
   R17        2.06447   0.00011   0.00000   0.00011   0.00011   2.06458
   R18        2.07688  -0.00015   0.00000   0.00026   0.00026   2.07714
   R19        2.07520   0.00000   0.00000   0.00008   0.00008   2.07528
   R20        2.67474  -0.00030   0.00000  -0.00006  -0.00006   2.67468
   R21        2.61993   0.00010   0.00000  -0.00058  -0.00058   2.61935
   R22        2.85069   0.00005   0.00000   0.00006   0.00006   2.85075
   R23        2.84752   0.00002   0.00000  -0.00022  -0.00022   2.84730
   R24        2.05050  -0.00001   0.00000   0.00008   0.00008   2.05057
   R25        2.05848  -0.00000   0.00000   0.00002   0.00002   2.05851
   R26        2.07101   0.00001   0.00000  -0.00001  -0.00001   2.07100
   R27        2.07376  -0.00001   0.00000   0.00011   0.00011   2.07387
   R28        2.07124  -0.00001   0.00000  -0.00006  -0.00006   2.07118
   R29        2.07184   0.00001   0.00000   0.00009   0.00009   2.07194
   R30        2.06486  -0.00001   0.00000   0.00002   0.00002   2.06488
    A1        1.69421   0.00155   0.00000   0.02424   0.02424   1.71845
    A2        2.09703  -0.00022   0.00000  -0.00223  -0.00223   2.09480
    A3        2.06412   0.00020   0.00000   0.00103   0.00089   2.06502
    A4        1.71372  -0.00119   0.00000  -0.01017  -0.01016   1.70356
    A5        1.57582   0.00006   0.00000   0.00269   0.00265   1.57847
    A6        2.07919  -0.00011   0.00000  -0.00398  -0.00401   2.07518
    A7        2.05500  -0.00009   0.00000   0.00027   0.00026   2.05525
    A8        2.11436   0.00067   0.00000   0.00199   0.00198   2.11633
    A9        2.11159  -0.00057   0.00000  -0.00168  -0.00169   2.10989
   A10        2.10401   0.00139   0.00000   0.04174   0.03906   2.14307
   A11        2.09301  -0.00105   0.00000   0.00183  -0.00138   2.09163
   A12        2.00084  -0.00004   0.00000   0.00573   0.00417   2.00501
   A13        2.11466  -0.00007   0.00000  -0.00038  -0.00038   2.11428
   A14        2.13127   0.00018   0.00000   0.00087   0.00087   2.13214
   A15        2.03711  -0.00011   0.00000  -0.00054  -0.00054   2.03657
   A16        2.18132   0.00006   0.00000  -0.00016  -0.00010   2.18121
   A17        2.08074  -0.00003   0.00000  -0.00015  -0.00010   2.08064
   A18        2.02112  -0.00003   0.00000   0.00031   0.00021   2.02133
   A19        2.24145  -0.00003   0.00000  -0.00047  -0.00032   2.24112
   A20        1.90999   0.00013   0.00000   0.00152   0.00122   1.91121
   A21        2.13170  -0.00010   0.00000  -0.00102  -0.00087   2.13084
   A22        1.54337  -0.00012   0.00000  -0.00310  -0.00228   1.54109
   A23        1.94889   0.00007   0.00000  -0.00399  -0.00294   1.94594
   A24        1.91008  -0.00006   0.00000   0.00016   0.00016   1.91025
   A25        1.93743  -0.00001   0.00000  -0.00014  -0.00014   1.93729
   A26        1.95577  -0.00022   0.00000   0.00064   0.00064   1.95641
   A27        1.95237  -0.00005   0.00000  -0.00112  -0.00112   1.95125
   A28        1.85851   0.00025   0.00000   0.00117   0.00117   1.85968
   A29        1.86986  -0.00001   0.00000   0.00117   0.00117   1.87103
   A30        1.88514   0.00007   0.00000  -0.00162  -0.00162   1.88352
   A31        2.08973  -0.00014   0.00000  -0.00053  -0.00053   2.08920
   A32        2.09291   0.00011   0.00000   0.00037   0.00037   2.09328
   A33        2.10051   0.00003   0.00000   0.00016   0.00016   2.10068
   A34        2.07627  -0.00006   0.00000  -0.00057  -0.00057   2.07570
   A35        2.10064  -0.00000   0.00000   0.00003   0.00002   2.10067
   A36        2.10624   0.00006   0.00000   0.00052   0.00052   2.10676
   A37        2.10517   0.00028   0.00000   0.00131   0.00130   2.10648
   A38        2.07934  -0.00014   0.00000  -0.00107  -0.00107   2.07827
   A39        2.09561  -0.00014   0.00000  -0.00035  -0.00035   2.09526
   A40        1.94671  -0.00001   0.00000  -0.00014  -0.00014   1.94657
   A41        1.93497   0.00004   0.00000   0.00017   0.00017   1.93514
   A42        1.93945  -0.00002   0.00000   0.00006   0.00006   1.93951
   A43        1.89167  -0.00001   0.00000   0.00017   0.00017   1.89184
   A44        1.88556   0.00002   0.00000  -0.00014  -0.00014   1.88542
   A45        1.86246  -0.00002   0.00000  -0.00012  -0.00012   1.86234
   A46        1.95235  -0.00000   0.00000   0.00014   0.00014   1.95250
   A47        1.93667   0.00005   0.00000   0.00010   0.00010   1.93677
   A48        1.93958  -0.00001   0.00000  -0.00005  -0.00005   1.93952
   A49        1.86604  -0.00002   0.00000  -0.00010  -0.00010   1.86593
   A50        1.88653   0.00001   0.00000   0.00008   0.00008   1.88660
   A51        1.87934  -0.00002   0.00000  -0.00017  -0.00017   1.87917
    D1        1.64690  -0.00070   0.00000  -0.00311  -0.00311   1.64380
    D2       -1.42334  -0.00083   0.00000  -0.01223  -0.01224  -1.43559
    D3       -0.16424  -0.00020   0.00000  -0.00566  -0.00566  -0.16990
    D4        3.04869  -0.00033   0.00000  -0.01479  -0.01479   3.03390
    D5       -2.99297   0.00025   0.00000   0.01343   0.01346  -2.97952
    D6        0.21996   0.00013   0.00000   0.00431   0.00432   0.22428
    D7        1.04808   0.00083   0.00000   0.15158   0.15206   1.20014
    D8       -1.63850   0.00007   0.00000   0.02607   0.02572  -1.61279
    D9       -3.10666   0.00071   0.00000   0.15285   0.15325  -2.95341
   D10        0.48994  -0.00005   0.00000   0.02735   0.02691   0.51685
   D11       -1.02089   0.00051   0.00000   0.14838   0.14875  -0.87213
   D12        2.57572  -0.00025   0.00000   0.02288   0.02241   2.59813
   D13        0.16227   0.00031   0.00000   0.00585   0.00585   0.16811
   D14       -3.06327   0.00034   0.00000   0.00423   0.00422  -3.05905
   D15       -1.63796  -0.00073   0.00000  -0.01597  -0.01596  -1.65392
   D16        1.41969  -0.00070   0.00000  -0.01759  -0.01758   1.40211
   D17        2.98832  -0.00010   0.00000  -0.01251  -0.01250   2.97582
   D18       -0.23722  -0.00007   0.00000  -0.01414  -0.01413  -0.25135
   D19       -3.08725   0.00003   0.00000  -0.00163  -0.00162  -3.08887
   D20        0.07310   0.00003   0.00000   0.00194   0.00195   0.07504
   D21       -0.01689   0.00021   0.00000   0.00764   0.00764  -0.00925
   D22       -3.13972   0.00021   0.00000   0.01121   0.01120  -3.12852
   D23       -0.19654   0.00010   0.00000   0.03960   0.03960  -0.15694
   D24        1.87897   0.00026   0.00000   0.04141   0.04141   1.92038
   D25       -2.28417   0.00016   0.00000   0.03896   0.03896  -2.24521
   D26        3.01871  -0.00005   0.00000   0.03010   0.03010   3.04880
   D27       -1.18896   0.00011   0.00000   0.03190   0.03190  -1.15706
   D28        0.93108   0.00000   0.00000   0.02945   0.02945   0.96054
   D29       -2.73571  -0.00031   0.00000  -0.10718  -0.10827  -2.84398
   D30       -0.02652   0.00014   0.00000   0.01048   0.01038  -0.01614
   D31        2.74712   0.00091   0.00000   0.11329   0.11169   2.85881
   D32        0.03498  -0.00019   0.00000  -0.01427  -0.01400   0.02098
   D33        0.16804   0.00006   0.00000   0.00734   0.00734   0.17538
   D34       -2.99134   0.00006   0.00000   0.00397   0.00397  -2.98737
   D35        0.02307   0.00010   0.00000   0.00212   0.00211   0.02518
   D36       -3.12743   0.00004   0.00000  -0.00008  -0.00008  -3.12751
   D37       -3.10056   0.00011   0.00000   0.00553   0.00553  -3.09503
   D38        0.03213   0.00004   0.00000   0.00334   0.00334   0.03546
   D39       -0.00678   0.00002   0.00000   0.00254   0.00243  -0.00435
   D40       -3.13807   0.00002   0.00000  -0.00111  -0.00114  -3.13921
   D41        3.13854  -0.00005   0.00000   0.00008   0.00022   3.13876
   D42        0.00726  -0.00005   0.00000  -0.00357  -0.00336   0.00390
   D43        3.11745   0.00009   0.00000   0.00948   0.00934   3.12678
   D44       -0.02765   0.00016   0.00000   0.01179   0.01141  -0.01624
   D45        0.00958  -0.00004   0.00000  -0.00345  -0.00348   0.00609
   D46       -3.12248  -0.00004   0.00000  -0.00683  -0.00679  -3.12928
   D47       -0.02923  -0.00003   0.00000  -0.00212  -0.00212  -0.03135
   D48        3.12130   0.00004   0.00000   0.00008   0.00008   3.12139
   D49        3.12091  -0.00010   0.00000  -0.00218  -0.00218   3.11873
   D50       -0.01174  -0.00004   0.00000   0.00002   0.00002  -0.01172
   D51       -0.06271  -0.00018   0.00000  -0.00190  -0.00190  -0.06461
   D52       -3.11958  -0.00022   0.00000  -0.00023  -0.00022  -3.11980
   D53        3.07029  -0.00011   0.00000  -0.00184  -0.00184   3.06846
   D54        0.01343  -0.00014   0.00000  -0.00016  -0.00016   0.01327
   D55       -0.96626   0.00003   0.00000   0.00386   0.00386  -0.96240
   D56        1.11600   0.00004   0.00000   0.00389   0.00388   1.11989
   D57       -3.07660   0.00004   0.00000   0.00370   0.00370  -3.07290
   D58        2.18393  -0.00004   0.00000   0.00380   0.00380   2.18773
   D59       -2.01699  -0.00003   0.00000   0.00383   0.00383  -2.01316
   D60        0.07360  -0.00004   0.00000   0.00364   0.00364   0.07724
   D61        0.10110   0.00004   0.00000   0.00657   0.00657   0.10768
   D62        2.21094   0.00004   0.00000   0.00681   0.00681   2.21775
   D63       -2.00405   0.00004   0.00000   0.00681   0.00681  -1.99724
   D64       -3.04955  -0.00004   0.00000   0.00434   0.00434  -3.04522
   D65       -0.93972  -0.00003   0.00000   0.00457   0.00457  -0.93515
   D66        1.12848  -0.00003   0.00000   0.00457   0.00457   1.13305
         Item               Value     Threshold  Converged?
 Maximum Force            0.001554     0.000450     NO 
 RMS     Force            0.000336     0.000300     NO 
 Maximum Displacement     0.463305     0.001800     NO 
 RMS     Displacement     0.084439     0.001200     NO 
 Predicted change in Energy=-3.443754D-04
 GradGradGradGradGradGradGradGradGradGradGradGradGradGradGradGradGradGrad

                          Input orientation:                          
 ---------------------------------------------------------------------
 Center     Atomic      Atomic             Coordinates (Angstroms)
 Number     Number       Type             X           Y           Z
 ---------------------------------------------------------------------
      1          6           0        4.807366   -2.094446    1.841396
      2          6           0        3.965685   -1.833460    2.952486
      3          6           0        4.017968   -0.523932    0.454034
      4          6           0        2.792149   -2.583021    3.070250
      5          6           0        2.479926    0.331465   -0.875741
      6          1           0        1.676205    0.230958   -1.596040
      7          6           0        2.967648    1.515732   -0.409505
      8          1           0        2.655840    2.518567   -0.666864
      9         16           0        4.258744    1.207599    0.730133
     10          7           0        3.080730   -0.812598   -0.366383
     11          8           0        1.896538   -2.345857    4.084472
     12          1           0        2.136923   -1.530999    4.541196
     13          6           0        4.280607   -0.730874    3.929895
     14          1           0        5.274361   -0.316126    3.745363
     15          1           0        3.572438    0.106084    3.851243
     16          1           0        4.265935   -1.089469    4.967786
     17          6           0        3.395731   -3.952831    1.152457
     18          6           0        2.478355   -3.629997    2.180805
     19          6           0        4.561078   -3.215006    1.015127
     20          1           0        5.258613   -3.444615    0.216250
     21          6           0        1.192560   -4.400259    2.334601
     22          1           0        0.557528   -3.967991    3.106926
     23          1           0        0.631187   -4.414966    1.393485
     24          1           0        1.387841   -5.446610    2.601798
     25          6           0        3.096479   -5.088749    0.205954
     26          1           0        2.903352   -6.025718    0.740791
     27          1           0        2.204412   -4.874537   -0.394439
     28          1           0        3.927656   -5.256488   -0.483230
     29          1           0        5.789640   -1.631999    1.819438
 ---------------------------------------------------------------------
                    Distance matrix (angstroms):
                    1          2          3          4          5
     1  C    0.000000
     2  C    1.418119   0.000000
     3  C    2.239294   2.821323   0.000000
     4  C    2.410371   1.397461   3.547826   0.000000
     5  C    4.322598   4.642166   2.205806   4.915543   0.000000
     6  H    5.198811   5.494782   3.202580   5.562201   1.083928
     7  C    4.635138   4.849346   2.451347   5.379524   1.362989
     8  H    5.674533   5.809951   3.516903   6.325409   2.204085
     9  S    3.526952   3.777933   1.769860   4.689973   2.551595
    10  N    3.081995   3.583322   1.278603   3.876612   1.388989
    11  O    3.683411   2.413568   4.582571   1.373685   5.666755
    12  H    3.838966   2.441281   4.610576   1.923475   5.738435
    13  C    2.549241   1.506718   3.491907   2.526845   5.240721
    14  H    2.646809   2.154899   3.529101   3.428698   5.439011
    15  H    3.225967   2.173532   3.483740   2.906904   4.856825
    16  H    3.328278   2.169125   4.555796   2.829025   6.273411
    17  C    2.433300   2.838430   3.554198   2.432822   4.827782
    18  C    2.810232   2.456661   3.872955   1.409161   5.003564
    19  C    1.413871   2.452860   2.802083   2.784249   4.525929
    20  H    2.160481   3.428479   3.182158   3.869251   4.813764
    21  C    4.315883   3.828898   5.152221   2.530260   5.861128
    22  H    4.813820   4.024377   5.556440   2.629262   6.167867
    23  H    4.798532   4.495947   5.243377   3.292009   5.576364
    24  H    4.848543   4.452316   5.980236   3.223611   6.831697
    25  C    3.816759   4.346937   4.663500   3.817784   5.561377
    26  H    4.504609   4.857486   5.620876   4.158234   6.573146
    27  H    4.416246   4.853054   4.789222   4.195300   5.235457
    28  H    4.021975   4.850022   4.825319   4.589556   5.785776
    29  H    1.085911   2.156663   2.496190   3.384365   4.698233
                    6          7          8          9         10
     6  H    0.000000
     7  C    2.174014   0.000000
     8  H    2.656352   1.081266   0.000000
     9  S    3.610322   1.749472   2.497908   0.000000
    10  N    2.138634   2.331473   3.371569   2.582878   0.000000
    11  O    6.241533   6.021211   6.842101   5.427583   4.854205
    12  H    6.401752   5.872148   6.617564   5.150364   5.048882
    13  C    6.184172   5.059792   5.859089   3.741207   4.461433
    14  H    6.463483   5.093089   5.861730   3.527722   4.686678
    15  H    5.769244   4.528449   5.203221   3.380188   4.344435
    16  H    7.178721   6.114563   6.881832   4.820194   5.471263
    17  C    5.292929   5.703347   6.762866   5.249113   3.502451
    18  C    5.460309   5.781664   6.778315   5.355050   3.845615
    19  C    5.197630   5.191192   6.271593   4.442078   3.141904
    20  H    5.443150   5.499558   6.566115   4.786117   3.465566
    21  C    6.093605   6.758699   7.682456   6.589679   4.871531
    22  H    6.403164   6.945876   7.792294   6.792266   5.327939
    23  H    5.622627   6.624425   7.511201   6.724020   4.698346
    24  H    7.066808   7.748416   8.702644   7.484899   5.757607
    25  C    5.793414   6.634347   7.669891   6.424143   4.314311
    26  H    6.790631   7.628944   8.663000   7.359217   5.332347
    27  H    5.271520   6.435705   7.411881   6.517463   4.155487
    28  H    6.034853   6.840323   7.880528   6.585309   4.525384
    29  H    5.661842   4.779125   5.764513   3.404930   3.575951
                   11         12         13         14         15
    11  O    0.000000
    12  H    0.964560   0.000000
    13  C    2.883721   2.368390   0.000000
    14  H    3.955312   3.457280   1.092527   0.000000
    15  H    2.979103   2.284027   1.099177   1.756706   0.000000
    16  H    2.823613   2.215765   1.098191   1.763321   1.776782
    17  C    3.664240   4.351255   4.344902   4.845414   4.877444
    18  C    2.368854   3.177076   3.835666   4.609472   4.236234
    19  C    4.156449   4.598431   3.839979   4.045549   4.477790
    20  H    5.241560   5.666748   4.702344   4.716177   5.353861
    21  C    2.788942   3.740793   5.054244   5.944030   5.317062
    22  H    2.319453   3.238912   5.001752   5.999353   5.122673
    23  H    3.622670   4.526875   5.772710   6.625020   5.927177
    24  H    3.474444   4.433328   5.689473   6.537174   6.096392
    25  C    4.899614   5.689698   5.853286   6.328389   6.364036
    26  H    5.072992   5.935739   6.332660   6.873760   6.908081
    27  H    5.152635   5.961904   6.338800   6.880527   6.686097
    28  H    5.784558   6.506217   6.330989   6.640918   6.904420
    29  H    4.560286   4.556370   2.746494   2.388770   3.473492
                   16         17         18         19         20
    16  H    0.000000
    17  C    4.849003   0.000000
    18  C    4.173365   1.415380   0.000000
    19  C    4.497613   1.386102   2.422552   0.000000
    20  H    5.395295   2.145948   3.409351   1.085117   0.000000
    21  C    5.228826   2.540004   1.506727   3.806935   4.683316
    22  H    5.049848   3.446096   2.159055   4.579413   5.543476
    23  H    6.086538   2.813249   2.155941   4.126391   4.872426
    24  H    5.732887   2.891987   2.160218   4.191302   4.968067
    25  C    6.327472   1.508552   2.531812   2.512115   2.716266
    26  H    6.640080   2.169969   2.827321   3.274663   3.533339
    27  H    6.879685   2.159089   2.873292   3.208550   3.427208
    28  H    6.869647   2.158226   3.441371   2.610354   2.354485
    29  H    3.539507   3.400283   3.884223   2.159211   2.477454
                   21         22         23         24         25
    21  C    0.000000
    22  H    1.089314   0.000000
    23  H    1.095927   1.772313   0.000000
    24  H    1.097442   1.769431   1.759783   0.000000
    25  C    2.937698   4.014724   2.818134   2.964385   0.000000
    26  H    2.847659   3.916086   2.860641   2.468904   1.096021
    27  H    2.948974   3.974117   2.425472   3.157767   1.096422
    28  H    4.019211   5.089913   3.885477   4.000526   1.092688
    29  H    5.390900   5.872774   5.876732   5.877004   4.669643
                   26         27         28         29
    26  H    0.000000
    27  H    1.761387   0.000000
    28  H    1.771762   1.767298   0.000000
    29  H    5.366461   5.316875   4.680404   0.000000
 Symmetry turned off by external request.
 Stoichiometry    C12H14NOS(2)
 Framework group  C1[X(C12H14NOS)]
 Deg. of freedom    81
 Full point group                 C1      NOp   1
 Rotational constants (GHZ):           0.7949309           0.3901425           0.3318967
 Standard basis: 6-31G(d,p) (6D, 7F)
   299 basis functions,   542 primitive gaussians,   299 cartesian basis functions
    59 alpha electrons       58 beta electrons
       nuclear repulsion energy      1077.3740209943 Hartrees.
 NAtoms=   29 NActive=   29 NUniq=   29 SFac= 1.00D+00 NAtFMM=   60 NAOKFM=F Big=F
 Integral buffers will be    131072 words long.
 Raffenetti 2 integral format.
 Two-electron integral symmetry is turned off.
 Nuclear repulsion after empirical dispersion term =     1077.3460520437 Hartrees.
 One-electron integrals computed using PRISM.
 NBasis=   299 RedAO= T EigKep=  4.05D-04  NBF=   299
 NBsUse=   299 1.00D-06 EigRej= -1.00D+00 NBFU=   299
 Initial guess from the checkpoint file:  "/scratch/jcuzick/job_48780647/Gau-2329488.chk"
 B after Tr=     0.008394    0.018859   -0.016915
         Rot=    0.999992    0.002870   -0.001865    0.001945 Ang=   0.45 deg.
 Initial guess <Sx>= 0.0000 <Sy>= 0.0000 <Sz>= 0.5000 <S**2>= 0.7748 S= 0.5123
 ExpMin= 1.17D-01 ExpMax= 2.19D+04 ExpMxC= 3.30D+03 IAcc=3 IRadAn=         5 AccDes= 0.00D+00
 Harris functional with IExCor=  402 and IRadAn=       5 diagonalized for initial guess.
 HarFok:  IExCor=  402 AccDes= 0.00D+00 IRadAn=         5 IDoV= 1 UseB2=F ITyADJ=14
 ICtDFT=  3500011 ScaDFX=  1.000000  1.000000  1.000000  1.000000
 FoFCou: FMM=F IPFlag=           0 FMFlag=      100000 FMFlg1=           0
         NFxFlg=           0 DoJE=T BraDBF=F KetDBF=T FulRan=T
         wScrn=  0.000000 ICntrl=       500 IOpCl=  0 I1Cent=   200000004 NGrid=           0
         NMat0=    1 NMatS0=      1 NMatT0=    0 NMatD0=    1 NMtDS0=    0 NMtDT0=    0
 Symmetry not used in FoFCou.
 Requested convergence on RMS density matrix=1.00D-08 within 128 cycles.
 Requested convergence on MAX density matrix=1.00D-06.
 Requested convergence on             energy=1.00D-06.
 No special actions if energy rises.
 Integral accuracy reduced to 1.0D-05 until final iterations.
 Initial convergence to 1.0D-05 achieved.  Increase integral accuracy.
 SCF Done:  E(UB3LYP) =  -993.824789557     A.U. after   16 cycles
            NFock= 16  Conv=0.82D-08     -V/T= 2.0070
 <Sx>= 0.0000 <Sy>= 0.0000 <Sz>= 0.5000 <S**2>= 0.7763 S= 0.5131
 <L.S>= 0.000000000000E+00
 Annihilation of the first spin contaminant:
 S**2 before annihilation     0.7763,   after     0.7505
 Calling FoFJK, ICntrl=      2127 FMM=F ISym2X=0 I1Cent= 0 IOpClX= 1 NMat=1 NMatS=1 NMatT=0.
 -------------------------------------------------------------------
 Center     Atomic                   Forces (Hartrees/Bohr)
 Number     Number              X              Y              Z
 -------------------------------------------------------------------
      1        6           0.000009335    0.000138444   -0.000602781
      2        6          -0.000143877   -0.000232737    0.000186805
      3        6           0.000759729   -0.000429991    0.000516413
      4        6           0.000014070   -0.000011953   -0.000034963
      5        6           0.000182539    0.000592773   -0.000056324
      6        1           0.000005995    0.000034070   -0.000024098
      7        6          -0.000182416   -0.000185702   -0.000135403
      8        1          -0.000036866   -0.000002210   -0.000005863
      9       16          -0.000171713   -0.000495994    0.000197154
     10        7          -0.000573958    0.000256033    0.000135441
     11        8          -0.000033447   -0.000023269    0.000035099
     12        1          -0.000017341   -0.000009748   -0.000025774
     13        6           0.000145782    0.000218653   -0.000389030
     14        1           0.000023135    0.000004090   -0.000004739
     15        1          -0.000091876    0.000134037   -0.000138307
     16        1          -0.000032343    0.000093968   -0.000029262
     17        6           0.000025758   -0.000038397    0.000058955
     18        6          -0.000004185   -0.000001752    0.000040121
     19        6           0.000191367   -0.000164513    0.000035905
     20        1          -0.000043311    0.000028663   -0.000013892
     21        6           0.000006528   -0.000013532    0.000003616
     22        1          -0.000005235    0.000002048   -0.000002793
     23        1          -0.000010013   -0.000009583   -0.000001692
     24        1          -0.000008741   -0.000001100    0.000004304
     25        6           0.000000466    0.000004558   -0.000006120
     26        1           0.000002362    0.000000682    0.000006318
     27        1           0.000005237    0.000010237   -0.000000513
     28        1          -0.000004365    0.000005434   -0.000002985
     29        1          -0.000012615    0.000096795    0.000254408
 -------------------------------------------------------------------
 Cartesian Forces:  Max     0.000759729 RMS     0.000190551

 GradGradGradGradGradGradGradGradGradGradGradGradGradGradGradGradGradGrad
 Berny optimization.
 FormGI is forming the generalized inverse of G from B-inverse, IUseBI=4.
 Internal  Forces:  Max     0.001219133 RMS     0.000259473
 Search for a saddle point.
 Step number   4 out of a maximum of  157
 All quantities printed in internal units (Hartrees-Bohrs-Radians)
 Swapping is turned off.
 Update second derivatives using D2CorX and points    2    3    4
 ITU=  0  0  0  0
     Eigenvalues ---   -0.03458  -0.00016   0.00050   0.00089   0.00249
     Eigenvalues ---    0.00359   0.00405   0.00962   0.01268   0.01420
     Eigenvalues ---    0.01468   0.01521   0.01709   0.01807   0.01928
     Eigenvalues ---    0.02552   0.03048   0.03458   0.03865   0.03922
     Eigenvalues ---    0.05133   0.05457   0.05767   0.05822   0.05860
     Eigenvalues ---    0.05913   0.06017   0.06071   0.06392   0.07170
     Eigenvalues ---    0.09208   0.11200   0.11942   0.12073   0.12189
     Eigenvalues ---    0.12217   0.12483   0.14473   0.14510   0.14583
     Eigenvalues ---    0.14702   0.14869   0.15053   0.15812   0.16952
     Eigenvalues ---    0.18979   0.19064   0.19337   0.20131   0.20516
     Eigenvalues ---    0.22128   0.23201   0.25019   0.27185   0.30123
     Eigenvalues ---    0.31345   0.32197   0.32557   0.32937   0.33206
     Eigenvalues ---    0.33461   0.33676   0.33957   0.34589   0.34622
     Eigenvalues ---    0.35102   0.35251   0.36054   0.36576   0.37019
     Eigenvalues ---    0.37379   0.38418   0.39602   0.41110   0.42929
     Eigenvalues ---    0.45249   0.48412   0.48611   0.51400   0.53557
     Eigenvalues ---    0.58250
 Eigenvectors required to have negative eigenvalues:
                          R2        D18       D6        D17       D5
   1                    0.90029   0.16399  -0.15968   0.15023  -0.14889
                          D13       D3        R1        R3        D4
   1                   -0.09540   0.09472  -0.08889  -0.08634   0.08392
 RFO step:  Lambda0=6.223130205D-06 Lambda=-6.63378956D-04.
 Linear search not attempted -- option 19 set.
 Iteration  1 RMS(Cart)=  0.21101107 RMS(Int)=  0.03814596
 Iteration  2 RMS(Cart)=  0.08225891 RMS(Int)=  0.00591524
 Iteration  3 RMS(Cart)=  0.00777311 RMS(Int)=  0.00049676
 Iteration  4 RMS(Cart)=  0.00005892 RMS(Int)=  0.00049613
 Iteration  5 RMS(Cart)=  0.00000003 RMS(Int)=  0.00049613
 Variable       Old X    -DE/DX   Delta X   Delta X   Delta X     New X
                                 (Linear)    (Quad)   (Total)
    R1        2.67986  -0.00025   0.00000  -0.00432  -0.00449   2.67536
    R2        4.23165  -0.00054   0.00000   0.03328   0.03328   4.26494
    R3        2.67183   0.00001   0.00000  -0.00737  -0.00756   2.66427
    R4        2.05207   0.00002   0.00000  -0.00014  -0.00014   2.05193
    R5        2.64082   0.00003   0.00000  -0.00037  -0.00033   2.64049
    R6        2.84728  -0.00002   0.00000   0.00095   0.00095   2.84824
    R7        3.34455  -0.00034   0.00000  -0.00653  -0.00639   3.33816
    R8        2.41621   0.00039   0.00000  -0.00131  -0.00118   2.41503
    R9        2.59589   0.00003   0.00000  -0.00090  -0.00090   2.59499
   R10        2.66293   0.00003   0.00000  -0.00177  -0.00157   2.66136
   R11        2.04833   0.00001   0.00000   0.00006   0.00006   2.04838
   R12        2.57568  -0.00042   0.00000  -0.00172  -0.00188   2.57380
   R13        2.62481   0.00036   0.00000   0.00414   0.00412   2.62892
   R14        2.04330   0.00001   0.00000  -0.00012  -0.00012   2.04318
   R15        3.30602   0.00001   0.00000   0.00138   0.00128   3.30730
   R16        1.82275  -0.00003   0.00000   0.00007   0.00007   1.82283
   R17        2.06458   0.00002   0.00000  -0.00148  -0.00148   2.06310
   R18        2.07714   0.00017   0.00000   0.00159   0.00159   2.07874
   R19        2.07528  -0.00006   0.00000   0.00015   0.00015   2.07543
   R20        2.67468   0.00010   0.00000  -0.00217  -0.00201   2.67267
   R21        2.61935   0.00005   0.00000   0.00494   0.00490   2.62425
   R22        2.85075  -0.00002   0.00000   0.00075   0.00075   2.85150
   R23        2.84730   0.00003   0.00000   0.00075   0.00075   2.84805
   R24        2.05057  -0.00002   0.00000   0.00012   0.00012   2.05069
   R25        2.05851   0.00000   0.00000   0.00021   0.00021   2.05872
   R26        2.07100   0.00001   0.00000  -0.00094  -0.00094   2.07006
   R27        2.07387   0.00000   0.00000   0.00060   0.00060   2.07446
   R28        2.07118   0.00000   0.00000  -0.00026  -0.00026   2.07091
   R29        2.07194  -0.00000   0.00000   0.00036   0.00036   2.07230
   R30        2.06488  -0.00000   0.00000   0.00016   0.00016   2.06504
    A1        1.71845  -0.00122   0.00000  -0.05965  -0.05995   1.65850
    A2        2.09480   0.00009   0.00000   0.00477   0.00531   2.10011
    A3        2.06502  -0.00010   0.00000  -0.00412  -0.00597   2.05904
    A4        1.70356   0.00120   0.00000   0.08245   0.08261   1.78617
    A5        1.57847  -0.00010   0.00000  -0.04837  -0.04898   1.52949
    A6        2.07518   0.00004   0.00000   0.00723   0.00815   2.08333
    A7        2.05525   0.00013   0.00000   0.00328   0.00253   2.05778
    A8        2.11633  -0.00071   0.00000  -0.00947  -0.00956   2.10677
    A9        2.10989   0.00057   0.00000   0.00364   0.00350   2.11340
   A10        2.14307  -0.00096   0.00000  -0.05161  -0.05312   2.08996
   A11        2.09163   0.00117   0.00000   0.07152   0.07082   2.16245
   A12        2.00501  -0.00027   0.00000   0.00203   0.00150   2.00651
   A13        2.11428   0.00013   0.00000   0.00020   0.00021   2.11449
   A14        2.13214  -0.00013   0.00000  -0.00138  -0.00143   2.13071
   A15        2.03657   0.00000   0.00000   0.00134   0.00135   2.03791
   A16        2.18121  -0.00006   0.00000  -0.00005  -0.00004   2.18117
   A17        2.08064   0.00001   0.00000  -0.00013  -0.00013   2.08052
   A18        2.02133   0.00005   0.00000   0.00017   0.00015   2.02148
   A19        2.24112   0.00001   0.00000  -0.00108  -0.00103   2.24010
   A20        1.91121  -0.00008   0.00000  -0.00152  -0.00163   1.90958
   A21        2.13084   0.00007   0.00000   0.00263   0.00268   2.13351
   A22        1.54109   0.00029   0.00000   0.00113   0.00143   1.54251
   A23        1.94594   0.00001   0.00000  -0.00191  -0.00155   1.94439
   A24        1.91025  -0.00000   0.00000   0.00058   0.00058   1.91083
   A25        1.93729  -0.00001   0.00000   0.00060   0.00056   1.93785
   A26        1.95641  -0.00015   0.00000  -0.01104  -0.01105   1.94536
   A27        1.95125   0.00015   0.00000   0.00917   0.00916   1.96041
   A28        1.85968   0.00001   0.00000  -0.00438  -0.00442   1.85525
   A29        1.87103  -0.00002   0.00000   0.00559   0.00554   1.87657
   A30        1.88352   0.00002   0.00000   0.00011   0.00014   1.88366
   A31        2.08920   0.00005   0.00000   0.00207   0.00191   2.09111
   A32        2.09328  -0.00001   0.00000  -0.00035  -0.00028   2.09300
   A33        2.10068  -0.00004   0.00000  -0.00168  -0.00161   2.09907
   A34        2.07570   0.00001   0.00000  -0.00029  -0.00019   2.07551
   A35        2.10067   0.00000   0.00000  -0.00104  -0.00109   2.09958
   A36        2.10676  -0.00001   0.00000   0.00137   0.00132   2.10808
   A37        2.10648  -0.00013   0.00000  -0.00174  -0.00234   2.10414
   A38        2.07827   0.00008   0.00000   0.00352   0.00367   2.08194
   A39        2.09526   0.00005   0.00000   0.00016   0.00031   2.09557
   A40        1.94657  -0.00000   0.00000  -0.00130  -0.00130   1.94527
   A41        1.93514   0.00001   0.00000   0.00252   0.00252   1.93766
   A42        1.93951   0.00001   0.00000  -0.00052  -0.00053   1.93899
   A43        1.89184  -0.00001   0.00000   0.00023   0.00023   1.89207
   A44        1.88542  -0.00001   0.00000  -0.00191  -0.00191   1.88351
   A45        1.86234  -0.00001   0.00000   0.00099   0.00099   1.86333
   A46        1.95250  -0.00000   0.00000  -0.00127  -0.00127   1.95122
   A47        1.93677  -0.00001   0.00000   0.00172   0.00172   1.93849
   A48        1.93952  -0.00000   0.00000   0.00059   0.00059   1.94011
   A49        1.86593   0.00001   0.00000  -0.00111  -0.00110   1.86483
   A50        1.88660   0.00001   0.00000  -0.00035  -0.00035   1.88626
   A51        1.87917  -0.00000   0.00000   0.00036   0.00036   1.87953
    D1        1.64380   0.00075   0.00000   0.10474   0.10451   1.74831
    D2       -1.43559   0.00090   0.00000   0.15116   0.15084  -1.28475
    D3       -0.16990   0.00007   0.00000   0.04272   0.04273  -0.12717
    D4        3.03390   0.00021   0.00000   0.08914   0.08906   3.12296
    D5       -2.97952  -0.00006   0.00000   0.01509   0.01520  -2.96432
    D6        0.22428   0.00009   0.00000   0.06152   0.06153   0.28581
    D7        1.20014  -0.00018   0.00000   0.39787   0.39960   1.59973
    D8       -1.61279   0.00008   0.00000   0.31624   0.31797  -1.29482
    D9       -2.95341  -0.00008   0.00000   0.40925   0.40895  -2.54446
   D10        0.51685   0.00018   0.00000   0.32762   0.32732   0.84418
   D11       -0.87213   0.00005   0.00000   0.41586   0.41443  -0.45770
   D12        2.59813   0.00031   0.00000   0.33423   0.33280   2.93094
   D13        0.16811  -0.00020   0.00000  -0.04333  -0.04321   0.12490
   D14       -3.05905  -0.00020   0.00000  -0.01734  -0.01714  -3.07619
   D15       -1.65392   0.00047   0.00000  -0.02574  -0.02597  -1.67988
   D16        1.40211   0.00046   0.00000   0.00025   0.00010   1.40221
   D17        2.97582  -0.00010   0.00000  -0.01769  -0.01797   2.95784
   D18       -0.25135  -0.00010   0.00000   0.00830   0.00810  -0.24325
   D19       -3.08887   0.00004   0.00000  -0.00690  -0.00683  -3.09570
   D20        0.07504   0.00008   0.00000  -0.01545  -0.01542   0.05962
   D21       -0.00925  -0.00015   0.00000  -0.05363  -0.05383  -0.06308
   D22       -3.12852  -0.00011   0.00000  -0.06218  -0.06243   3.09224
   D23       -0.15694  -0.00008   0.00000   0.09884   0.09886  -0.05808
   D24        1.92038  -0.00017   0.00000   0.08636   0.08640   2.00678
   D25       -2.24521  -0.00015   0.00000   0.08520   0.08520  -2.16001
   D26        3.04880   0.00009   0.00000   0.14674   0.14673  -3.08765
   D27       -1.15706  -0.00001   0.00000   0.13426   0.13427  -1.02279
   D28        0.96054   0.00002   0.00000   0.13311   0.13307   1.09360
   D29       -2.84398  -0.00013   0.00000  -0.09326  -0.09057  -2.93455
   D30       -0.01614  -0.00012   0.00000  -0.00259  -0.00262  -0.01876
   D31        2.85881  -0.00022   0.00000   0.06907   0.07188   2.93069
   D32        0.02098   0.00018   0.00000   0.00476   0.00451   0.02549
   D33        0.17538   0.00003   0.00000  -0.03015  -0.03018   0.14520
   D34       -2.98737   0.00000   0.00000  -0.02208  -0.02205  -3.00942
   D35        0.02518  -0.00012   0.00000  -0.01300  -0.01300   0.01219
   D36       -3.12751  -0.00007   0.00000  -0.00797  -0.00797  -3.13548
   D37       -3.09503  -0.00009   0.00000  -0.02117  -0.02123  -3.11625
   D38        0.03546  -0.00004   0.00000  -0.01615  -0.01620   0.01926
   D39       -0.00435  -0.00002   0.00000   0.00412   0.00433  -0.00002
   D40       -3.13921  -0.00002   0.00000  -0.00088  -0.00098  -3.14019
   D41        3.13876   0.00007   0.00000   0.00822   0.00802  -3.13641
   D42        0.00390   0.00008   0.00000   0.00322   0.00271   0.00661
   D43        3.12678  -0.00008   0.00000  -0.00137  -0.00125   3.12553
   D44       -0.01624  -0.00017   0.00000  -0.00522  -0.00472  -0.02095
   D45        0.00609   0.00002   0.00000  -0.00046  -0.00017   0.00592
   D46       -3.12928   0.00002   0.00000  -0.00508  -0.00508  -3.13435
   D47       -0.03135   0.00001   0.00000   0.01376   0.01378  -0.01757
   D48        3.12139  -0.00004   0.00000   0.00874   0.00874   3.13013
   D49        3.11873   0.00008   0.00000   0.00898   0.00896   3.12768
   D50       -0.01172   0.00003   0.00000   0.00395   0.00392  -0.00780
   D51       -0.06461   0.00015   0.00000   0.01423   0.01417  -0.05044
   D52       -3.11980   0.00016   0.00000  -0.01218  -0.01227  -3.13207
   D53        3.06846   0.00009   0.00000   0.01905   0.01902   3.08747
   D54        0.01327   0.00009   0.00000  -0.00736  -0.00742   0.00585
   D55       -0.96240  -0.00003   0.00000   0.02158   0.02160  -0.94081
   D56        1.11989  -0.00003   0.00000   0.02050   0.02052   1.14040
   D57       -3.07290  -0.00004   0.00000   0.02250   0.02251  -3.05039
   D58        2.18773   0.00003   0.00000   0.01674   0.01673   2.20446
   D59       -2.01316   0.00004   0.00000   0.01566   0.01565  -1.99751
   D60        0.07724   0.00003   0.00000   0.01766   0.01764   0.09488
   D61        0.10768  -0.00002   0.00000   0.04744   0.04744   0.15511
   D62        2.21775  -0.00002   0.00000   0.04858   0.04857   2.26632
   D63       -1.99724  -0.00002   0.00000   0.05111   0.05111  -1.94613
   D64       -3.04522   0.00003   0.00000   0.05254   0.05255  -2.99267
   D65       -0.93515   0.00003   0.00000   0.05368   0.05369  -0.88146
   D66        1.13305   0.00003   0.00000   0.05622   0.05622   1.18928
         Item               Value     Threshold  Converged?
 Maximum Force            0.001219     0.000450     NO 
 RMS     Force            0.000259     0.000300     YES
 Maximum Displacement     1.092345     0.001800     NO 
 RMS     Displacement     0.259693     0.001200     NO 
 Predicted change in Energy=-6.626733D-04
 GradGradGradGradGradGradGradGradGradGradGradGradGradGradGradGradGradGrad

                          Input orientation:                          
 ---------------------------------------------------------------------
 Center     Atomic      Atomic             Coordinates (Angstroms)
 Number     Number       Type             X           Y           Z
 ---------------------------------------------------------------------
      1          6           0        4.736836   -2.129515    1.778240
      2          6           0        3.879589   -1.849673    2.869632
      3          6           0        3.926300   -0.484078    0.463251
      4          6           0        2.747594   -2.652065    3.034443
      5          6           0        2.431874    0.707322   -0.638375
      6          1           0        1.495753    0.805451   -1.175973
      7          6           0        3.311365    1.722027   -0.410568
      8          1           0        3.233884    2.757355   -0.712391
      9         16           0        4.682130    1.112297    0.490680
     10          7           0        2.791665   -0.533651   -0.122735
     11          8           0        1.842935   -2.406688    4.037981
     12          1           0        2.056711   -1.569166    4.466125
     13          6           0        4.107387   -0.637749    3.736270
     14          1           0        5.009213   -0.102701    3.432394
     15          1           0        3.278549    0.080318    3.649922
     16          1           0        4.219437   -0.898669    4.797193
     17          6           0        3.402587   -4.067707    1.169781
     18          6           0        2.484259   -3.754726    2.198862
     19          6           0        4.529759   -3.277547    0.986486
     20          1           0        5.232516   -3.508673    0.192555
     21          6           0        1.246359   -4.588589    2.407899
     22          1           0        0.575979   -4.131394    3.134819
     23          1           0        0.698993   -4.721674    1.468406
     24          1           0        1.502832   -5.592729    2.769836
     25          6           0        3.151968   -5.254957    0.272811
     26          1           0        2.996289   -6.174292    0.848608
     27          1           0        2.252695   -5.105610   -0.336749
     28          1           0        3.990961   -5.419185   -0.407828
     29          1           0        5.697077   -1.623875    1.742108
 ---------------------------------------------------------------------
                    Distance matrix (angstroms):
                    1          2          3          4          5
     1  C    0.000000
     2  C    1.415741   0.000000
     3  C    2.256907   2.767255   0.000000
     4  C    2.410018   1.397286   3.563782   0.000000
     5  C    4.381840   4.576048   2.205974   4.987459   0.000000
     6  H    5.276932   5.394374   3.202733   5.590091   1.083957
     7  C    4.653733   4.882585   2.451246   5.596305   1.361994
     8  H    5.687144   5.871331   3.516882   6.598262   2.202574
     9  S    3.488575   3.882880   1.766478   4.937974   2.549984
    10  N    3.153439   3.445251   1.277981   3.802288   1.391167
    11  O    3.682108   2.413144   4.562404   1.373210   5.649089
    12  H    3.836898   2.439335   4.549261   1.923462   5.601702
    13  C    2.540759   1.507221   3.281625   2.529638   4.873815
    14  H    2.630284   2.155148   3.183388   3.431114   4.885690
    15  H    3.242400   2.166787   3.300454   2.850727   4.415822
    16  H    3.301025   2.176097   4.363585   2.889292   5.943062
    17  C    2.430438   2.834907   3.689967   2.431053   5.197366
    18  C    2.809330   2.454812   3.973533   1.408332   5.287960
    19  C    1.409870   2.451078   2.905410   2.785941   4.787533
    20  H    2.159206   3.427744   3.305700   3.871038   5.129196
    21  C    4.315895   3.827370   5.273590   2.529108   6.223496
    22  H    4.812541   4.023730   5.627152   2.629524   6.410499
    23  H    4.808270   4.508660   5.420615   3.306436   6.075804
    24  H    4.841063   4.435020   6.106705   3.204208   7.222857
    25  C    3.813989   4.343832   4.837060   3.816435   6.074337
    26  H    4.500437   4.854594   5.778577   4.152806   7.063022
    27  H    4.416024   4.850648   4.979911   4.198778   5.823509
    28  H    4.019595   4.847222   5.011810   4.588261   6.325977
    29  H    1.085836   2.150711   2.463790   3.380348   4.665054
                    6          7          8          9         10
     6  H    0.000000
     7  C    2.173110   0.000000
     8  H    2.654418   1.081205   0.000000
     9  S    3.609000   1.750147   2.500202   0.000000
    10  N    2.140535   2.332599   3.372531   2.580558   0.000000
    11  O    6.133814   6.244371   7.153189   5.746967   4.660463
    12  H    6.147092   6.015667   6.849931   5.466922   4.761311
    13  C    5.747485   4.837196   5.663949   3.731869   4.078466
    14  H    5.865678   4.580467   5.339565   3.199514   4.212147
    15  H    5.195522   4.379940   5.118428   3.607747   3.853175
    16  H    6.782418   5.900290   6.685308   4.775367   5.135900
    17  C    5.734653   6.002237   7.081843   5.378741   3.812267
    18  C    5.758634   6.122749   7.172484   5.606820   3.982416
    19  C    5.527413   5.332165   6.401993   4.420382   3.432246
    20  H    5.869236   5.604891   6.639018   4.663172   3.861078
    21  C    6.480894   7.213313   8.224923   6.926785   5.023406
    22  H    6.618258   7.369847   8.325884   7.165769   5.335230
    23  H    6.178727   7.202521   8.192522   7.131378   4.944749
    24  H    7.517058   8.178718   9.211208   7.762723   5.968445
    25  C    6.447524   7.012184   8.073071   6.552159   4.751527
    26  H    7.420737   8.002290   9.070142   7.487626   5.727321
    27  H    6.018130   6.909620   7.932846   6.726749   4.608590
    28  H    6.749977   7.173477   8.217160   6.629124   5.038654
    29  H    5.662856   4.639041   5.593484   3.175348   3.620449
                   11         12         13         14         15
    11  O    0.000000
    12  H    0.964599   0.000000
    13  C    2.889276   2.367593   0.000000
    14  H    3.962374   3.454907   1.091745   0.000000
    15  H    2.897719   2.209043   1.100021   1.753856   0.000000
    16  H    2.915182   2.288352   1.098268   1.766349   1.777615
    17  C    3.663068   4.349709   4.341454   4.839622   4.834521
    18  C    2.368725   3.178041   3.835846   4.608067   4.176605
    19  C    4.158009   4.598089   3.835134   4.036334   4.464827
    20  H    5.243179   5.666641   4.697450   4.706067   5.352778
    21  C    2.788146   3.742977   5.055610   5.944060   5.241289
    22  H    2.322818   3.244989   5.003812   5.997706   5.030678
    23  H    3.642866   4.557194   5.782629   6.615902   5.871307
    24  H    3.445971   4.401504   5.680628   6.547832   6.009258
    25  C    4.899256   5.689334   5.850384   6.322822   6.315541
    26  H    5.069236   5.930971   6.342432   6.898698   6.859094
    27  H    5.156582   5.967616   6.323856   6.843532   6.621161
    28  H    5.783975   6.505335   6.328447   6.636953   6.871491
    29  H    4.553925   4.547034   2.734272   2.375752   3.520412
                   16         17         18         19         20
    16  H    0.000000
    17  C    4.885506   0.000000
    18  C    4.233111   1.414317   0.000000
    19  C    4.502983   1.388693   2.425207   0.000000
    20  H    5.388983   2.148518   3.411558   1.085178   0.000000
    21  C    5.306923   2.540388   1.507124   3.810507   4.686514
    22  H    5.146725   3.443129   2.158570   4.580040   5.543287
    23  H    6.171687   2.797547   2.157714   4.122199   4.863332
    24  H    5.790019   2.914607   2.160432   4.207457   4.989610
    25  C    6.370775   1.508950   2.531048   2.513522   2.717468
    26  H    6.702209   2.169315   2.817740   3.280498   3.540712
    27  H    6.922701   2.160816   2.882332   3.205899   3.421945
    28  H    6.897790   2.159057   3.440263   2.611709   2.356263
    29  H    3.470287   3.400670   3.882183   2.160608   2.483826
                   21         22         23         24         25
    21  C    0.000000
    22  H    1.089426   0.000000
    23  H    1.095430   1.772144   0.000000
    24  H    1.097759   1.768550   1.760289   0.000000
    25  C    2.938366   4.011135   2.780455   3.011457   0.000000
    26  H    2.829858   3.906161   2.787799   2.501949   1.095880
    27  H    2.968689   3.976463   2.412464   3.232716   1.096613
    28  H    4.018837   5.086340   3.852770   4.039611   1.092771
    29  H    5.389035   5.869662   5.886605   5.865127   4.671314
                   26         27         28         29
    26  H    0.000000
    27  H    1.760706   0.000000
    28  H    1.771494   1.767753   0.000000
    29  H    5.366459   5.320516   4.683741   0.000000
 Symmetry turned off by external request.
 Stoichiometry    C12H14NOS(2)
 Framework group  C1[X(C12H14NOS)]
 Deg. of freedom    81
 Full point group                 C1      NOp   1
 Rotational constants (GHZ):           0.8575323           0.3560211           0.3178782
 Standard basis: 6-31G(d,p) (6D, 7F)
   299 basis functions,   542 primitive gaussians,   299 cartesian basis functions
    59 alpha electrons       58 beta electrons
       nuclear repulsion energy      1071.1839999341 Hartrees.
 NAtoms=   29 NActive=   29 NUniq=   29 SFac= 1.00D+00 NAtFMM=   60 NAOKFM=F Big=F
 Integral buffers will be    131072 words long.
 Raffenetti 2 integral format.
 Two-electron integral symmetry is turned off.
 Nuclear repulsion after empirical dispersion term =     1071.1562543008 Hartrees.
 One-electron integrals computed using PRISM.
 NBasis=   299 RedAO= T EigKep=  3.91D-04  NBF=   299
 NBsUse=   299 1.00D-06 EigRej= -1.00D+00 NBFU=   299
 Initial guess from the checkpoint file:  "/scratch/jcuzick/job_48780647/Gau-2329488.chk"
 B after Tr=     0.143895    0.180784    0.001875
         Rot=    0.999886   -0.000786   -0.002815    0.014830 Ang=  -1.73 deg.
 Initial guess <Sx>= 0.0000 <Sy>= 0.0000 <Sz>= 0.5000 <S**2>= 0.7766 S= 0.5132
 ExpMin= 1.17D-01 ExpMax= 2.19D+04 ExpMxC= 3.30D+03 IAcc=3 IRadAn=         5 AccDes= 0.00D+00
 Harris functional with IExCor=  402 and IRadAn=       5 diagonalized for initial guess.
 HarFok:  IExCor=  402 AccDes= 0.00D+00 IRadAn=         5 IDoV= 1 UseB2=F ITyADJ=14
 ICtDFT=  3500011 ScaDFX=  1.000000  1.000000  1.000000  1.000000
 FoFCou: FMM=F IPFlag=           0 FMFlag=      100000 FMFlg1=           0
         NFxFlg=           0 DoJE=T BraDBF=F KetDBF=T FulRan=T
         wScrn=  0.000000 ICntrl=       500 IOpCl=  0 I1Cent=   200000004 NGrid=           0
         NMat0=    1 NMatS0=      1 NMatT0=    0 NMatD0=    1 NMtDS0=    0 NMtDT0=    0
 Symmetry not used in FoFCou.
 Requested convergence on RMS density matrix=1.00D-08 within 128 cycles.
 Requested convergence on MAX density matrix=1.00D-06.
 Requested convergence on             energy=1.00D-06.
 No special actions if energy rises.
 Integral accuracy reduced to 1.0D-05 until final iterations.
 Initial convergence to 1.0D-05 achieved.  Increase integral accuracy.
 SCF Done:  E(UB3LYP) =  -993.824227917     A.U. after   19 cycles
            NFock= 19  Conv=0.97D-08     -V/T= 2.0070
 <Sx>= 0.0000 <Sy>= 0.0000 <Sz>= 0.5000 <S**2>= 0.7747 S= 0.5123
 <L.S>= 0.000000000000E+00
 Annihilation of the first spin contaminant:
 S**2 before annihilation     0.7747,   after     0.7505
 Calling FoFJK, ICntrl=      2127 FMM=F ISym2X=0 I1Cent= 0 IOpClX= 1 NMat=1 NMatS=1 NMatT=0.
 -------------------------------------------------------------------
 Center     Atomic                   Forces (Hartrees/Bohr)
 Number     Number              X              Y              Z
 -------------------------------------------------------------------
      1        6          -0.000360157    0.002066648    0.000889984
      2        6          -0.000661671    0.000465299    0.000397084
      3        6           0.000093022    0.000106553   -0.001718927
      4        6           0.000436337    0.000437808    0.000588861
      5        6          -0.000812704   -0.001193395    0.000510500
      6        1           0.000007786   -0.000074571    0.000039226
      7        6           0.000498883    0.000194624    0.000433815
      8        1           0.000165004   -0.000031897   -0.000052927
      9       16           0.000202995    0.001042877   -0.000739715
     10        7           0.000502064    0.000039185   -0.000410265
     11        8          -0.000127292   -0.000169121   -0.000198901
     12        1           0.000125924   -0.000024994    0.000008519
     13        6          -0.000448575   -0.000616315    0.001268404
     14        1           0.000163342   -0.000210784    0.000264366
     15        1           0.000488342   -0.000149561    0.000134709
     16        1          -0.000183250   -0.000050517    0.000011305
     17        6           0.000343688    0.000051101   -0.000306250
     18        6          -0.000283866   -0.000340465   -0.000115851
     19        6          -0.000657882   -0.001034311   -0.000452913
     20        1           0.000151863   -0.000133464    0.000085109
     21        6           0.000002841    0.000027202   -0.000001600
     22        1           0.000008992   -0.000000628    0.000028597
     23        1          -0.000048598    0.000047672    0.000012732
     24        1           0.000009304    0.000007234   -0.000037865
     25        6           0.000008976   -0.000016967   -0.000012732
     26        1           0.000047233   -0.000009935   -0.000029815
     27        1          -0.000049591   -0.000075745    0.000013258
     28        1          -0.000007477    0.000009291   -0.000023748
     29        1           0.000384466   -0.000362821   -0.000584961
 -------------------------------------------------------------------
 Cartesian Forces:  Max     0.002066648 RMS     0.000482267

 GradGradGradGradGradGradGradGradGradGradGradGradGradGradGradGradGradGrad
 Berny optimization.
 FormGI is forming the generalized inverse of G from B-inverse, IUseBI=4.
 Internal  Forces:  Max     0.003117821 RMS     0.000628500
 Search for a saddle point.
 Step number   5 out of a maximum of  157
 All quantities printed in internal units (Hartrees-Bohrs-Radians)
 Swapping is turned off.
 Update second derivatives using D2CorX and points    4    5
 ITU=  0  0  0  0  0
     Eigenvalues ---   -0.03459  -0.00002   0.00050   0.00116   0.00249
     Eigenvalues ---    0.00361   0.00447   0.00965   0.01289   0.01425
     Eigenvalues ---    0.01468   0.01521   0.01709   0.01807   0.01929
     Eigenvalues ---    0.02552   0.03048   0.03476   0.03867   0.03924
     Eigenvalues ---    0.05133   0.05473   0.05767   0.05822   0.05861
     Eigenvalues ---    0.05915   0.06017   0.06072   0.06511   0.07205
     Eigenvalues ---    0.09208   0.11201   0.11941   0.12077   0.12191
     Eigenvalues ---    0.12221   0.12483   0.14473   0.14510   0.14586
     Eigenvalues ---    0.14703   0.14872   0.15054   0.15811   0.16952
     Eigenvalues ---    0.18985   0.19064   0.19337   0.20136   0.20535
     Eigenvalues ---    0.22154   0.23210   0.25020   0.27186   0.30124
     Eigenvalues ---    0.31345   0.32196   0.32557   0.32937   0.33206
     Eigenvalues ---    0.33462   0.33676   0.33957   0.34589   0.34622
     Eigenvalues ---    0.35102   0.35251   0.36054   0.36577   0.37017
     Eigenvalues ---    0.37379   0.38432   0.39614   0.41140   0.42927
     Eigenvalues ---    0.45249   0.48426   0.48609   0.51400   0.53557
     Eigenvalues ---    0.58253
 Eigenvectors required to have negative eigenvalues:
                          R2        D18       D6        D17       D5
   1                   -0.90048  -0.16452   0.15867  -0.15066   0.14851
                          D13       D3        R1        R3        D4
   1                    0.09585  -0.09546   0.08924   0.08669  -0.08531
 RFO step:  Lambda0=2.661457288D-06 Lambda=-1.14166127D-03.
 Linear search not attempted -- option 19 set.
 Iteration  1 RMS(Cart)=  0.09910922 RMS(Int)=  0.00351131
 Iteration  2 RMS(Cart)=  0.00584186 RMS(Int)=  0.00036725
 Iteration  3 RMS(Cart)=  0.00002404 RMS(Int)=  0.00036701
 Iteration  4 RMS(Cart)=  0.00000003 RMS(Int)=  0.00036701
 Variable       Old X    -DE/DX   Delta X   Delta X   Delta X     New X
                                 (Linear)    (Quad)   (Total)
    R1        2.67536   0.00201   0.00000   0.00220   0.00212   2.67748
    R2        4.26494   0.00095   0.00000  -0.01940  -0.01940   4.24554
    R3        2.66427   0.00132   0.00000   0.00896   0.00888   2.67314
    R4        2.05193   0.00019   0.00000   0.00034   0.00034   2.05227
    R5        2.64049   0.00003   0.00000  -0.00003  -0.00001   2.64047
    R6        2.84824   0.00014   0.00000  -0.00043  -0.00043   2.84780
    R7        3.33816   0.00076   0.00000   0.00494   0.00511   3.34327
    R8        2.41503  -0.00045   0.00000   0.00139   0.00156   2.41659
    R9        2.59499  -0.00017   0.00000  -0.00030  -0.00030   2.59470
   R10        2.66136   0.00043   0.00000   0.00186   0.00195   2.66331
   R11        2.04838  -0.00003   0.00000  -0.00004  -0.00004   2.04834
   R12        2.57380   0.00080   0.00000   0.00174   0.00155   2.57534
   R13        2.62892  -0.00097   0.00000  -0.00451  -0.00453   2.62439
   R14        2.04318  -0.00003   0.00000   0.00007   0.00007   2.04325
   R15        3.30730  -0.00019   0.00000  -0.00174  -0.00186   3.30544
   R16        1.82283   0.00001   0.00000  -0.00009  -0.00009   1.82274
   R17        2.06310  -0.00004   0.00000   0.00071   0.00071   2.06381
   R18        2.07874  -0.00048   0.00000  -0.00129  -0.00129   2.07745
   R19        2.07543   0.00000   0.00000  -0.00040  -0.00040   2.07503
   R20        2.67267   0.00001   0.00000   0.00051   0.00058   2.67325
   R21        2.62425  -0.00039   0.00000  -0.00334  -0.00335   2.62090
   R22        2.85150   0.00011   0.00000   0.00002   0.00002   2.85152
   R23        2.84805  -0.00002   0.00000  -0.00075  -0.00075   2.84730
   R24        2.05069   0.00006   0.00000   0.00033   0.00033   2.05102
   R25        2.05872   0.00001   0.00000  -0.00010  -0.00010   2.05862
   R26        2.07006   0.00001   0.00000   0.00026   0.00026   2.07032
   R27        2.07446  -0.00002   0.00000  -0.00013  -0.00013   2.07433
   R28        2.07091  -0.00001   0.00000   0.00020   0.00020   2.07111
   R29        2.07230   0.00002   0.00000  -0.00009  -0.00009   2.07220
   R30        2.06504   0.00001   0.00000   0.00009   0.00009   2.06513
    A1        1.65850   0.00312   0.00000   0.03940   0.03929   1.69779
    A2        2.10011  -0.00063   0.00000  -0.00495  -0.00476   2.09535
    A3        2.05904   0.00068   0.00000   0.00786   0.00720   2.06625
    A4        1.78617  -0.00264   0.00000  -0.04691  -0.04685   1.73932
    A5        1.52949   0.00024   0.00000   0.02604   0.02570   1.55519
    A6        2.08333  -0.00023   0.00000  -0.00782  -0.00753   2.07580
    A7        2.05778  -0.00053   0.00000  -0.00206  -0.00235   2.05543
    A8        2.10677   0.00187   0.00000   0.00652   0.00653   2.11331
    A9        2.11340  -0.00129   0.00000  -0.00205  -0.00205   2.11135
   A10        2.08996   0.00201   0.00000   0.04229   0.04044   2.13039
   A11        2.16245  -0.00216   0.00000  -0.05609  -0.05698   2.10547
   A12        2.00651   0.00015   0.00000  -0.00433  -0.00499   2.00152
   A13        2.11449  -0.00009   0.00000   0.00051   0.00052   2.11501
   A14        2.13071   0.00057   0.00000   0.00275   0.00271   2.13342
   A15        2.03791  -0.00048   0.00000  -0.00332  -0.00331   2.03460
   A16        2.18117   0.00017   0.00000   0.00020   0.00021   2.18138
   A17        2.08052   0.00001   0.00000   0.00082   0.00083   2.08135
   A18        2.02148  -0.00018   0.00000  -0.00101  -0.00103   2.02045
   A19        2.24010   0.00001   0.00000   0.00091   0.00097   2.24106
   A20        1.90958   0.00021   0.00000   0.00068   0.00054   1.91011
   A21        2.13351  -0.00022   0.00000  -0.00160  -0.00155   2.13196
   A22        1.54251  -0.00043   0.00000   0.00056   0.00093   1.54345
   A23        1.94439   0.00026   0.00000   0.00403   0.00449   1.94888
   A24        1.91083  -0.00016   0.00000  -0.00108  -0.00108   1.90975
   A25        1.93785   0.00002   0.00000  -0.00036  -0.00037   1.93748
   A26        1.94536   0.00039   0.00000   0.00710   0.00709   1.95246
   A27        1.96041  -0.00023   0.00000  -0.00466  -0.00467   1.95574
   A28        1.85525  -0.00001   0.00000   0.00329   0.00327   1.85852
   A29        1.87657  -0.00004   0.00000  -0.00446  -0.00447   1.87209
   A30        1.88366  -0.00012   0.00000  -0.00087  -0.00086   1.88279
   A31        2.09111  -0.00010   0.00000  -0.00225  -0.00232   2.08879
   A32        2.09300   0.00009   0.00000   0.00079   0.00083   2.09383
   A33        2.09907   0.00001   0.00000   0.00146   0.00149   2.10056
   A34        2.07551   0.00011   0.00000  -0.00018  -0.00015   2.07536
   A35        2.09958  -0.00015   0.00000   0.00036   0.00034   2.09992
   A36        2.10808   0.00004   0.00000  -0.00021  -0.00022   2.10785
   A37        2.10414   0.00052   0.00000   0.00332   0.00308   2.10722
   A38        2.08194  -0.00028   0.00000  -0.00355  -0.00344   2.07849
   A39        2.09557  -0.00025   0.00000  -0.00019  -0.00008   2.09549
   A40        1.94527  -0.00002   0.00000   0.00053   0.00053   1.94580
   A41        1.93766   0.00002   0.00000  -0.00140  -0.00140   1.93625
   A42        1.93899  -0.00001   0.00000   0.00037   0.00037   1.93935
   A43        1.89207  -0.00002   0.00000  -0.00019  -0.00019   1.89187
   A44        1.88351   0.00001   0.00000   0.00070   0.00070   1.88421
   A45        1.86333   0.00001   0.00000   0.00002   0.00002   1.86336
   A46        1.95122   0.00001   0.00000   0.00003   0.00003   1.95125
   A47        1.93849   0.00008   0.00000   0.00071   0.00071   1.93920
   A48        1.94011  -0.00001   0.00000  -0.00022  -0.00022   1.93989
   A49        1.86483  -0.00005   0.00000  -0.00016  -0.00016   1.86467
   A50        1.88626  -0.00002   0.00000  -0.00044  -0.00044   1.88582
   A51        1.87953  -0.00002   0.00000   0.00005   0.00005   1.87958
    D1        1.74831  -0.00169   0.00000  -0.06222  -0.06230   1.68601
    D2       -1.28475  -0.00206   0.00000  -0.08702  -0.08713  -1.37188
    D3       -0.12717  -0.00037   0.00000  -0.03024  -0.03021  -0.15739
    D4        3.12296  -0.00074   0.00000  -0.05503  -0.05505   3.06791
    D5       -2.96432   0.00030   0.00000  -0.01104  -0.01093  -2.97525
    D6        0.28581  -0.00008   0.00000  -0.03583  -0.03576   0.25005
    D7        1.59973   0.00045   0.00000   0.02006   0.02080   1.62053
    D8       -1.29482   0.00039   0.00000   0.11085   0.11139  -1.18342
    D9       -2.54446   0.00013   0.00000   0.01585   0.01577  -2.52869
   D10        0.84418   0.00007   0.00000   0.10663   0.10636   0.95054
   D11       -0.45770  -0.00025   0.00000   0.01016   0.00979  -0.44791
   D12        2.93094  -0.00031   0.00000   0.10095   0.10039   3.03132
   D13        0.12490   0.00066   0.00000   0.02818   0.02822   0.15312
   D14       -3.07619   0.00068   0.00000   0.02016   0.02021  -3.05598
   D15       -1.67988  -0.00117   0.00000   0.01279   0.01275  -1.66713
   D16        1.40221  -0.00115   0.00000   0.00477   0.00475   1.40696
   D17        2.95784   0.00014   0.00000   0.01143   0.01138   2.96923
   D18       -0.24325   0.00016   0.00000   0.00341   0.00337  -0.23988
   D19       -3.09570  -0.00007   0.00000   0.00686   0.00690  -3.08880
   D20        0.05962  -0.00006   0.00000   0.01263   0.01267   0.07229
   D21       -0.06308   0.00052   0.00000   0.03231   0.03226  -0.03081
   D22        3.09224   0.00052   0.00000   0.03808   0.03804   3.13028
   D23       -0.05808  -0.00013   0.00000  -0.10125  -0.10124  -0.15932
   D24        2.00678   0.00012   0.00000  -0.09275  -0.09273   1.91405
   D25       -2.16001   0.00008   0.00000  -0.09208  -0.09208  -2.25209
   D26       -3.08765  -0.00057   0.00000  -0.12686  -0.12687   3.06866
   D27       -1.02279  -0.00032   0.00000  -0.11837  -0.11837  -1.14115
   D28        1.09360  -0.00036   0.00000  -0.11770  -0.11771   0.97589
   D29       -2.93455   0.00053   0.00000   0.08862   0.09098  -2.84356
   D30       -0.01876   0.00024   0.00000  -0.00227  -0.00227  -0.02103
   D31        2.93069  -0.00003   0.00000  -0.07761  -0.07512   2.85557
   D32        0.02549  -0.00035   0.00000   0.00281   0.00257   0.02807
   D33        0.14520  -0.00008   0.00000   0.01464   0.01464   0.15984
   D34       -3.00942  -0.00008   0.00000   0.00921   0.00922  -3.00020
   D35        0.01219   0.00032   0.00000   0.00837   0.00837   0.02056
   D36       -3.13548   0.00016   0.00000   0.00366   0.00366  -3.13182
   D37       -3.11625   0.00033   0.00000   0.01387   0.01387  -3.10238
   D38        0.01926   0.00017   0.00000   0.00916   0.00916   0.02842
   D39       -0.00002   0.00001   0.00000  -0.00630  -0.00612  -0.00614
   D40       -3.14019   0.00007   0.00000   0.00279   0.00270  -3.13750
   D41       -3.13641  -0.00021   0.00000  -0.00892  -0.00910   3.13768
   D42        0.00661  -0.00015   0.00000   0.00017  -0.00028   0.00633
   D43        3.12553   0.00012   0.00000  -0.00444  -0.00434   3.12118
   D44       -0.02095   0.00033   0.00000  -0.00199  -0.00155  -0.02250
   D45        0.00592  -0.00004   0.00000   0.00109   0.00136   0.00728
   D46       -3.13435   0.00001   0.00000   0.00952   0.00952  -3.12483
   D47       -0.01757  -0.00011   0.00000  -0.01140  -0.01140  -0.02897
   D48        3.13013   0.00006   0.00000  -0.00667  -0.00667   3.12346
   D49        3.12768  -0.00027   0.00000  -0.01133  -0.01134   3.11634
   D50       -0.00780  -0.00011   0.00000  -0.00660  -0.00661  -0.01441
   D51       -0.05044  -0.00042   0.00000  -0.00676  -0.00677  -0.05722
   D52       -3.13207  -0.00043   0.00000   0.00143   0.00142  -3.13065
   D53        3.08747  -0.00025   0.00000  -0.00683  -0.00684   3.08064
   D54        0.00585  -0.00027   0.00000   0.00136   0.00136   0.00721
   D55       -0.94081   0.00003   0.00000  -0.01467  -0.01467  -0.95548
   D56        1.14040   0.00003   0.00000  -0.01438  -0.01438   1.12602
   D57       -3.05039   0.00006   0.00000  -0.01398  -0.01398  -3.06437
   D58        2.20446  -0.00014   0.00000  -0.01460  -0.01460   2.18986
   D59       -1.99751  -0.00014   0.00000  -0.01431  -0.01431  -2.01182
   D60        0.09488  -0.00011   0.00000  -0.01391  -0.01391   0.08097
   D61        0.15511   0.00005   0.00000  -0.00829  -0.00829   0.14683
   D62        2.26632   0.00003   0.00000  -0.00914  -0.00914   2.25718
   D63       -1.94613   0.00005   0.00000  -0.00978  -0.00978  -1.95591
   D64       -2.99267  -0.00012   0.00000  -0.01309  -0.01309  -3.00576
   D65       -0.88146  -0.00014   0.00000  -0.01394  -0.01394  -0.89540
   D66        1.18928  -0.00011   0.00000  -0.01458  -0.01458   1.17469
         Item               Value     Threshold  Converged?
 Maximum Force            0.003118     0.000450     NO 
 RMS     Force            0.000628     0.000300     NO 
 Maximum Displacement     0.365054     0.001800     NO 
 RMS     Displacement     0.096984     0.001200     NO 
 Predicted change in Energy=-6.577993D-04
 GradGradGradGradGradGradGradGradGradGradGradGradGradGradGradGradGradGrad

                          Input orientation:                          
 ---------------------------------------------------------------------
 Center     Atomic      Atomic             Coordinates (Angstroms)
 Number     Number       Type             X           Y           Z
 ---------------------------------------------------------------------
      1          6           0        4.767096   -2.106588    1.810250
      2          6           0        3.903016   -1.834354    2.899634
      3          6           0        3.975093   -0.531008    0.418245
      4          6           0        2.752573   -2.616696    3.029287
      5          6           0        2.360150    0.587798   -0.589433
      6          1           0        1.380502    0.644389   -1.049875
      7          6           0        3.229752    1.630518   -0.472035
      8          1           0        3.104111    2.650857   -0.807004
      9         16           0        4.686924    1.086132    0.327876
     10          7           0        2.795041   -0.622766   -0.065905
     11          8           0        1.835886   -2.373810    4.022246
     12          1           0        2.051911   -1.542911    4.461908
     13          6           0        4.157596   -0.670659    3.822689
     14          1           0        5.132962   -0.220624    3.625572
     15          1           0        3.413277    0.127465    3.690274
     16          1           0        4.144954   -0.971524    4.878649
     17          6           0        3.416893   -4.026751    1.162329
     18          6           0        2.481291   -3.702409    2.172585
     19          6           0        4.559466   -3.255235    1.011189
     20          1           0        5.276419   -3.492330    0.231604
     21          6           0        1.220579   -4.509620    2.343590
     22          1           0        0.548731   -4.051531    3.068511
     23          1           0        0.686901   -4.608545    1.391926
     24          1           0        1.446228   -5.527396    2.687298
     25          6           0        3.166240   -5.204459    0.252859
     26          1           0        2.996029   -6.127138    0.819320
     27          1           0        2.275617   -5.042881   -0.366119
     28          1           0        4.011925   -5.370754   -0.419014
     29          1           0        5.736331   -1.617314    1.785225
 ---------------------------------------------------------------------
                    Distance matrix (angstroms):
                    1          2          3          4          5
     1  C    0.000000
     2  C    1.416864   0.000000
     3  C    2.246641   2.803783   0.000000
     4  C    2.409266   1.397279   3.558397   0.000000
     5  C    4.337232   4.518942   2.207981   4.849527   0.000000
     6  H    5.217011   5.301496   3.204503   5.399705   1.083937
     7  C    4.640928   4.881268   2.453636   5.525014   1.362812
     8  H    5.678804   5.873204   3.519107   6.525935   2.203867
     9  S    3.520983   3.969596   1.769184   4.974964   2.550229
    10  N    3.100110   3.389686   1.278805   3.682088   1.388768
    11  O    3.681892   2.413358   4.578313   1.373054   5.505775
    12  H    3.836829   2.439720   4.590620   1.922588   5.490990
    13  C    2.546232   1.506993   3.412192   2.527971   4.927611
    14  H    2.643125   2.154966   3.424026   3.429718   5.109629
    15  H    3.218433   2.171104   3.384583   2.898940   4.431351
    16  H    3.330240   2.172443   4.485322   2.839974   5.959608
    17  C    2.435134   2.839216   3.617384   2.432100   5.047716
    18  C    2.811198   2.457546   3.920068   1.409364   5.103850
    19  C    1.414567   2.452765   2.848594   2.783040   4.708278
    20  H    2.161438   3.428338   3.240017   3.868276   5.081945
    21  C    4.317036   3.829060   5.208037   2.529891   5.990402
    22  H    4.812549   4.024378   5.581930   2.630059   6.179414
    23  H    4.804454   4.506963   5.327905   3.303849   5.807540
    24  H    4.847609   4.440659   6.042156   3.208687   6.997701
    25  C    3.819033   4.348087   4.745812   3.817877   5.908424
    26  H    4.503715   4.855752   5.695270   4.155290   6.890522
    27  H    4.423333   4.858829   4.884715   4.200315   5.635740
    28  H    4.024261   4.850918   4.911771   4.589290   6.185607
    29  H    1.086016   2.156399   2.480051   3.383676   4.679756
                    6          7          8          9         10
     6  H    0.000000
     7  C    2.173954   0.000000
     8  H    2.656263   1.081241   0.000000
     9  S    3.609122   1.749161   2.498322   0.000000
    10  N    2.138878   2.330495   3.370662   2.579654   0.000000
    11  O    5.919739   6.178679   7.083596   5.809302   4.549628
    12  H    5.967816   5.983457   6.815882   5.562858   4.679744
    13  C    5.760511   4.959937   5.794511   3.947179   4.120682
    14  H    6.057146   4.882554   5.657683   3.575104   4.388006
    15  H    5.183473   4.429184   5.166101   3.721148   3.879941
    16  H    6.738009   6.019804   6.821411   5.023665   5.137364
    17  C    5.555204   5.891593   6.968972   5.333936   3.671835
    18  C    5.521833   5.999527   7.044845   5.585507   3.820141
    19  C    5.436991   5.276238   6.348686   4.396662   3.347121
    20  H    5.825187   5.561252   6.598210   4.617260   3.805278
    21  C    6.172924   7.047398   8.046513   6.884119   4.836552
    22  H    6.301159   7.211728   8.153011   7.143620   5.160126
    23  H    5.834106   6.990447   7.960975   7.040010   4.738772
    24  H    7.215381   8.024842   9.046687   7.733546   5.784014
    25  C    6.252599   6.873603   7.926737   6.472221   4.607744
    26  H    7.208148   7.867875   8.928036   7.425087   5.578722
    27  H    5.797741   6.742096   7.750768   6.622752   4.460645
    28  H    6.595780   7.045028   8.082135   6.534894   4.914151
    29  H    5.668010   4.682582   5.644955   3.245573   3.614829
                   11         12         13         14         15
    11  O    0.000000
    12  H    0.964553   0.000000
    13  C    2.886327   2.367137   0.000000
    14  H    3.957811   3.455543   1.092119   0.000000
    15  H    2.975692   2.288863   1.099339   1.755754   0.000000
    16  H    2.834012   2.209295   1.098057   1.763579   1.776334
    17  C    3.662093   4.349697   4.346207   4.847583   4.862925
    18  C    2.367060   3.176288   3.837233   4.611438   4.223733
    19  C    4.154668   4.596450   3.840061   4.046327   4.464741
    20  H    5.239973   5.665083   4.702073   4.716318   5.341967
    21  C    2.785350   3.738950   5.054842   5.945225   5.303211
    22  H    2.319725   3.239487   5.002298   6.000111   5.104529
    23  H    3.637691   4.548204   5.784573   6.634040   5.928349
    24  H    3.446596   4.403659   5.677018   6.529486   6.070642
    25  C    4.898029   5.689003   5.855068   6.331019   6.348721
    26  H    5.068742   5.930847   6.335822   6.879567   6.894675
    27  H    5.155100   5.967385   6.340685   6.881292   6.669414
    28  H    5.782872   6.505185   6.332784   6.643736   6.890213
    29  H    4.559608   4.554681   2.745874   2.387818   3.474198
                   16         17         18         19         20
    16  H    0.000000
    17  C    4.865749   0.000000
    18  C    4.189068   1.414625   0.000000
    19  C    4.510477   1.386922   2.422316   0.000000
    20  H    5.406450   2.147019   3.409439   1.085352   0.000000
    21  C    5.243721   2.540145   1.506727   3.807485   4.684570
    22  H    5.069108   3.443907   2.158555   4.577407   5.541821
    23  H    6.110915   2.800724   2.156466   4.119850   4.863738
    24  H    5.730716   2.908777   2.160292   4.202893   4.984204
    25  C    6.346144   1.508959   2.531927   2.513089   2.717479
    26  H    6.661721   2.169426   2.824109   3.275511   3.533809
    27  H    6.897677   2.161293   2.878225   3.210704   3.430203
    28  H    6.887390   2.158947   3.441307   2.611646   2.355997
    29  H    3.538191   3.401937   3.884965   2.160308   2.478092
                   21         22         23         24         25
    21  C    0.000000
    22  H    1.089374   0.000000
    23  H    1.095566   1.772088   0.000000
    24  H    1.097689   1.768899   1.760356   0.000000
    25  C    2.939311   4.013538   2.792795   2.998203   0.000000
    26  H    2.844642   3.918709   2.822423   2.500183   1.095987
    27  H    2.956348   3.970087   2.409021   3.200937   1.096563
    28  H    4.020590   5.088899   3.862156   4.031937   1.092818
    29  H    5.391588   5.872259   5.882082   5.874305   4.671308
                   26         27         28         29
    26  H    0.000000
    27  H    1.760646   0.000000
    28  H    1.771337   1.767786   0.000000
    29  H    5.364769   5.323470   4.681939   0.000000
 Symmetry turned off by external request.
 Stoichiometry    C12H14NOS(2)
 Framework group  C1[X(C12H14NOS)]
 Deg. of freedom    81
 Full point group                 C1      NOp   1
 Rotational constants (GHZ):           0.8351652           0.3633580           0.3245850
 Standard basis: 6-31G(d,p) (6D, 7F)
   299 basis functions,   542 primitive gaussians,   299 cartesian basis functions
    59 alpha electrons       58 beta electrons
       nuclear repulsion energy      1072.5985548901 Hartrees.
 NAtoms=   29 NActive=   29 NUniq=   29 SFac= 1.00D+00 NAtFMM=   60 NAOKFM=F Big=F
 Integral buffers will be    131072 words long.
 Raffenetti 2 integral format.
 Two-electron integral symmetry is turned off.
 Nuclear repulsion after empirical dispersion term =     1072.5709868947 Hartrees.
 One-electron integrals computed using PRISM.
 NBasis=   299 RedAO= T EigKep=  4.01D-04  NBF=   299
 NBsUse=   299 1.00D-06 EigRej= -1.00D+00 NBFU=   299
 Initial guess from the checkpoint file:  "/scratch/jcuzick/job_48780647/Gau-2329488.chk"
 B after Tr=    -0.013091   -0.042365   -0.036907
         Rot=    0.999982    0.005386   -0.002662   -0.000293 Ang=   0.69 deg.
 Initial guess <Sx>= 0.0000 <Sy>= 0.0000 <Sz>= 0.5000 <S**2>= 0.7748 S= 0.5123
 ExpMin= 1.17D-01 ExpMax= 2.19D+04 ExpMxC= 3.30D+03 IAcc=3 IRadAn=         5 AccDes= 0.00D+00
 Harris functional with IExCor=  402 and IRadAn=       5 diagonalized for initial guess.
 HarFok:  IExCor=  402 AccDes= 0.00D+00 IRadAn=         5 IDoV= 1 UseB2=F ITyADJ=14
 ICtDFT=  3500011 ScaDFX=  1.000000  1.000000  1.000000  1.000000
 FoFCou: FMM=F IPFlag=           0 FMFlag=      100000 FMFlg1=           0
         NFxFlg=           0 DoJE=T BraDBF=F KetDBF=T FulRan=T
         wScrn=  0.000000 ICntrl=       500 IOpCl=  0 I1Cent=   200000004 NGrid=           0
         NMat0=    1 NMatS0=      1 NMatT0=    0 NMatD0=    1 NMtDS0=    0 NMtDT0=    0
 Symmetry not used in FoFCou.
 Requested convergence on RMS density matrix=1.00D-08 within 128 cycles.
 Requested convergence on MAX density matrix=1.00D-06.
 Requested convergence on             energy=1.00D-06.
 No special actions if energy rises.
 Integral accuracy reduced to 1.0D-05 until final iterations.
 Initial convergence to 1.0D-05 achieved.  Increase integral accuracy.
 SCF Done:  E(UB3LYP) =  -993.824741658     A.U. after   17 cycles
            NFock= 17  Conv=0.60D-08     -V/T= 2.0070
 <Sx>= 0.0000 <Sy>= 0.0000 <Sz>= 0.5000 <S**2>= 0.7755 S= 0.5127
 <L.S>= 0.000000000000E+00
 Annihilation of the first spin contaminant:
 S**2 before annihilation     0.7755,   after     0.7505
 Calling FoFJK, ICntrl=      2127 FMM=F ISym2X=0 I1Cent= 0 IOpClX= 1 NMat=1 NMatS=1 NMatT=0.
 -------------------------------------------------------------------
 Center     Atomic                   Forces (Hartrees/Bohr)
 Number     Number              X              Y              Z
 -------------------------------------------------------------------
      1        6          -0.000710921   -0.000088781   -0.000239937
      2        6           0.000154146   -0.000193437   -0.000003296
      3        6          -0.000654405    0.000631203    0.000060675
      4        6           0.000135185    0.000036724    0.000041815
      5        6          -0.000059865   -0.000204704    0.000024070
      6        1          -0.000014541   -0.000030470    0.000034721
      7        6           0.000206989    0.000019034    0.000048898
      8        1          -0.000017648    0.000005404    0.000058376
      9       16           0.000379927    0.000046607    0.000072808
     10        7           0.000404140   -0.000821939   -0.000009266
     11        8           0.000123721    0.000107556    0.000111000
     12        1          -0.000087383    0.000054114   -0.000024811
     13        6           0.000076671    0.000070251   -0.000253271
     14        1           0.000140047   -0.000027578   -0.000022023
     15        1          -0.000141703   -0.000015579   -0.000080764
     16        1          -0.000046425   -0.000056805    0.000044627
     17        6           0.000016385   -0.000066670    0.000066888
     18        6          -0.000012231    0.000039739   -0.000060225
     19        6           0.000061329    0.000547269   -0.000129871
     20        1          -0.000057947    0.000062459   -0.000060237
     21        6          -0.000005341    0.000008596    0.000011340
     22        1           0.000022661   -0.000018151    0.000022144
     23        1          -0.000012694    0.000017752    0.000006339
     24        1           0.000004262   -0.000018769   -0.000039063
     25        6           0.000024629   -0.000015486    0.000010346
     26        1           0.000002575    0.000002282    0.000007391
     27        1           0.000001694    0.000013088    0.000015715
     28        1          -0.000014090    0.000015023   -0.000009159
     29        1           0.000080833   -0.000118732    0.000294770
 -------------------------------------------------------------------
 Cartesian Forces:  Max     0.000821939 RMS     0.000192138

 GradGradGradGradGradGradGradGradGradGradGradGradGradGradGradGradGradGrad
 Berny optimization.
 FormGI is forming the generalized inverse of G from B-inverse, IUseBI=4.
 Internal  Forces:  Max     0.000727356 RMS     0.000160490
 Search for a saddle point.
 Step number   6 out of a maximum of  157
 All quantities printed in internal units (Hartrees-Bohrs-Radians)
 Swapping is turned off.
 Update second derivatives using D2CorX and points    1    2    5    6
 ITU=  0  0  0  0  0  0
     Eigenvalues ---   -0.02992   0.00022   0.00029   0.00087   0.00249
     Eigenvalues ---    0.00339   0.00385   0.00970   0.01316   0.01432
     Eigenvalues ---    0.01469   0.01522   0.01708   0.01807   0.01929
     Eigenvalues ---    0.02552   0.03050   0.03429   0.03863   0.03922
     Eigenvalues ---    0.05133   0.05460   0.05767   0.05822   0.05861
     Eigenvalues ---    0.05914   0.06017   0.06072   0.06525   0.07200
     Eigenvalues ---    0.09208   0.11201   0.11943   0.12076   0.12193
     Eigenvalues ---    0.12223   0.12484   0.14474   0.14511   0.14587
     Eigenvalues ---    0.14704   0.14881   0.15067   0.15812   0.16953
     Eigenvalues ---    0.18983   0.19073   0.19338   0.20138   0.20536
     Eigenvalues ---    0.22152   0.23213   0.25023   0.27185   0.30126
     Eigenvalues ---    0.31348   0.32197   0.32557   0.32938   0.33206
     Eigenvalues ---    0.33462   0.33676   0.33957   0.34590   0.34622
     Eigenvalues ---    0.35103   0.35252   0.36055   0.36576   0.37022
     Eigenvalues ---    0.37379   0.38443   0.39639   0.41130   0.42930
     Eigenvalues ---    0.45257   0.48423   0.48612   0.51402   0.53557
     Eigenvalues ---    0.58260
 Eigenvectors required to have negative eigenvalues:
                          R2        D18       D6        D5        D17
   1                   -0.90180  -0.15868   0.15003   0.14444  -0.14304
                          D13       D3        D4        D14       A1
   1                    0.10443  -0.10217  -0.09658   0.08879   0.08675
 RFO step:  Lambda0=3.783367752D-06 Lambda=-2.32155007D-04.
 Linear search not attempted -- option 19 set.
 Iteration  1 RMS(Cart)=  0.10652696 RMS(Int)=  0.00687653
 Iteration  2 RMS(Cart)=  0.00852732 RMS(Int)=  0.00004886
 Iteration  3 RMS(Cart)=  0.00007747 RMS(Int)=  0.00003530
 Iteration  4 RMS(Cart)=  0.00000000 RMS(Int)=  0.00003530
 Variable       Old X    -DE/DX   Delta X   Delta X   Delta X     New X
                                 (Linear)    (Quad)   (Total)
    R1        2.67748  -0.00050   0.00000  -0.00016  -0.00016   2.67732
    R2        4.24554  -0.00052   0.00000  -0.01486  -0.01486   4.23067
    R3        2.67314  -0.00043   0.00000  -0.00253  -0.00253   2.67061
    R4        2.05227   0.00001   0.00000  -0.00030  -0.00030   2.05198
    R5        2.64047  -0.00032   0.00000   0.00031   0.00031   2.64078
    R6        2.84780  -0.00021   0.00000  -0.00091  -0.00091   2.84690
    R7        3.34327  -0.00000   0.00000   0.00001   0.00003   3.34331
    R8        2.41659  -0.00053   0.00000  -0.00027  -0.00025   2.41634
    R9        2.59470   0.00007   0.00000   0.00121   0.00121   2.59590
   R10        2.66331   0.00005   0.00000  -0.00051  -0.00051   2.66280
   R11        2.04834  -0.00000   0.00000   0.00004   0.00004   2.04838
   R12        2.57534   0.00033   0.00000   0.00034   0.00031   2.57566
   R13        2.62439  -0.00013   0.00000   0.00081   0.00081   2.62520
   R14        2.04325  -0.00001   0.00000   0.00004   0.00004   2.04329
   R15        3.30544  -0.00002   0.00000   0.00086   0.00084   3.30628
   R16        1.82274   0.00002   0.00000  -0.00016  -0.00016   1.82258
   R17        2.06381   0.00012   0.00000   0.00110   0.00110   2.06491
   R18        2.07745   0.00009   0.00000  -0.00042  -0.00042   2.07703
   R19        2.07503   0.00006   0.00000  -0.00052  -0.00052   2.07451
   R20        2.67325   0.00009   0.00000   0.00067   0.00067   2.67392
   R21        2.62090   0.00007   0.00000  -0.00052  -0.00052   2.62038
   R22        2.85152  -0.00003   0.00000  -0.00065  -0.00065   2.85087
   R23        2.84730  -0.00000   0.00000  -0.00006  -0.00006   2.84724
   R24        2.05102  -0.00001   0.00000  -0.00027  -0.00027   2.05075
   R25        2.05862  -0.00001   0.00000  -0.00048  -0.00048   2.05814
   R26        2.07032  -0.00000   0.00000   0.00170   0.00170   2.07202
   R27        2.07433   0.00001   0.00000  -0.00117  -0.00117   2.07316
   R28        2.07111   0.00000   0.00000   0.00045   0.00045   2.07157
   R29        2.07220  -0.00001   0.00000  -0.00043  -0.00043   2.07178
   R30        2.06513  -0.00001   0.00000  -0.00020  -0.00020   2.06493
    A1        1.69779   0.00010   0.00000   0.00895   0.00895   1.70674
    A2        2.09535   0.00022   0.00000   0.00094   0.00095   2.09630
    A3        2.06625  -0.00026   0.00000  -0.00366  -0.00373   2.06252
    A4        1.73932  -0.00034   0.00000  -0.01365  -0.01363   1.72569
    A5        1.55519   0.00018   0.00000   0.01165   0.01166   1.56685
    A6        2.07580   0.00006   0.00000   0.00053   0.00056   2.07636
    A7        2.05543   0.00018   0.00000   0.00034   0.00031   2.05574
    A8        2.11331  -0.00029   0.00000  -0.00350  -0.00350   2.10981
    A9        2.11135   0.00010   0.00000   0.00250   0.00249   2.11384
   A10        2.13039  -0.00002   0.00000   0.01472   0.01459   2.14499
   A11        2.10547  -0.00068   0.00000  -0.00935  -0.00955   2.09592
   A12        2.00152   0.00073   0.00000   0.00324   0.00316   2.00467
   A13        2.11501  -0.00009   0.00000  -0.00020  -0.00020   2.11481
   A14        2.13342  -0.00016   0.00000  -0.00191  -0.00192   2.13150
   A15        2.03460   0.00026   0.00000   0.00208   0.00209   2.03669
   A16        2.18138   0.00003   0.00000  -0.00027  -0.00027   2.18111
   A17        2.08135  -0.00005   0.00000  -0.00046  -0.00046   2.08090
   A18        2.02045   0.00001   0.00000   0.00073   0.00073   2.02117
   A19        2.24106  -0.00006   0.00000  -0.00038  -0.00038   2.24068
   A20        1.91011   0.00013   0.00000   0.00064   0.00063   1.91074
   A21        2.13196  -0.00007   0.00000  -0.00023  -0.00022   2.13174
   A22        1.54345  -0.00045   0.00000  -0.00179  -0.00174   1.54170
   A23        1.94888  -0.00042   0.00000  -0.00270  -0.00264   1.94624
   A24        1.90975   0.00009   0.00000  -0.00033  -0.00033   1.90942
   A25        1.93748  -0.00002   0.00000  -0.00002  -0.00002   1.93746
   A26        1.95246  -0.00016   0.00000  -0.00155  -0.00155   1.95091
   A27        1.95574  -0.00004   0.00000  -0.00102  -0.00102   1.95472
   A28        1.85852   0.00013   0.00000   0.00317   0.00317   1.86169
   A29        1.87209   0.00005   0.00000  -0.00324  -0.00324   1.86886
   A30        1.88279   0.00007   0.00000   0.00286   0.00286   1.88565
   A31        2.08879  -0.00001   0.00000   0.00049   0.00049   2.08928
   A32        2.09383   0.00000   0.00000  -0.00098  -0.00098   2.09285
   A33        2.10056   0.00001   0.00000   0.00048   0.00048   2.10104
   A34        2.07536  -0.00004   0.00000   0.00073   0.00071   2.07607
   A35        2.09992   0.00004   0.00000   0.00204   0.00204   2.10195
   A36        2.10785   0.00001   0.00000  -0.00269  -0.00270   2.10516
   A37        2.10722  -0.00017   0.00000  -0.00102  -0.00103   2.10620
   A38        2.07849   0.00008   0.00000   0.00044   0.00044   2.07893
   A39        2.09549   0.00009   0.00000   0.00015   0.00015   2.09564
   A40        1.94580  -0.00000   0.00000   0.00162   0.00162   1.94741
   A41        1.93625   0.00000   0.00000  -0.00235  -0.00235   1.93390
   A42        1.93935  -0.00000   0.00000   0.00016   0.00016   1.93951
   A43        1.89187   0.00001   0.00000  -0.00174  -0.00174   1.89014
   A44        1.88421   0.00001   0.00000   0.00385   0.00384   1.88805
   A45        1.86336  -0.00001   0.00000  -0.00157  -0.00157   1.86179
   A46        1.95125  -0.00000   0.00000   0.00017   0.00017   1.95143
   A47        1.93920  -0.00003   0.00000  -0.00075  -0.00075   1.93845
   A48        1.93989   0.00000   0.00000   0.00008   0.00008   1.93998
   A49        1.86467   0.00001   0.00000   0.00001   0.00001   1.86468
   A50        1.88582   0.00001   0.00000  -0.00023  -0.00023   1.88559
   A51        1.87958   0.00000   0.00000   0.00074   0.00074   1.88032
    D1        1.68601  -0.00017   0.00000  -0.01735  -0.01734   1.66866
    D2       -1.37188  -0.00011   0.00000  -0.00859  -0.00859  -1.38047
    D3       -0.15739   0.00011   0.00000  -0.00706  -0.00706  -0.16445
    D4        3.06791   0.00017   0.00000   0.00171   0.00169   3.06960
    D5       -2.97525   0.00005   0.00000   0.00034   0.00032  -2.97493
    D6        0.25005   0.00011   0.00000   0.00911   0.00908   0.25912
    D7        1.62053  -0.00014   0.00000  -0.16883  -0.16878   1.45175
    D8       -1.18342  -0.00036   0.00000  -0.20015  -0.20010  -1.38353
    D9       -2.52869   0.00003   0.00000  -0.16885  -0.16884  -2.69753
   D10        0.95054  -0.00020   0.00000  -0.20017  -0.20017   0.75037
   D11       -0.44791   0.00009   0.00000  -0.16719  -0.16725  -0.61516
   D12        3.03132  -0.00013   0.00000  -0.19851  -0.19857   2.83275
   D13        0.15312  -0.00012   0.00000   0.00092   0.00092   0.15404
   D14       -3.05598  -0.00008   0.00000  -0.00623  -0.00622  -3.06221
   D15       -1.66713  -0.00009   0.00000  -0.00138  -0.00139  -1.66852
   D16        1.40696  -0.00004   0.00000  -0.00853  -0.00853   1.39842
   D17        2.96923  -0.00012   0.00000  -0.00729  -0.00731   2.96191
   D18       -0.23988  -0.00007   0.00000  -0.01444  -0.01445  -0.25433
   D19       -3.08880   0.00000   0.00000   0.01079   0.01079  -3.07801
   D20        0.07229  -0.00007   0.00000   0.01249   0.01248   0.08477
   D21       -0.03081  -0.00007   0.00000   0.00173   0.00172  -0.02910
   D22        3.13028  -0.00015   0.00000   0.00343   0.00340   3.13368
   D23       -0.15932  -0.00006   0.00000  -0.13929  -0.13929  -0.29861
   D24        1.91405  -0.00002   0.00000  -0.13632  -0.13632   1.77773
   D25       -2.25209  -0.00007   0.00000  -0.13446  -0.13447  -2.38656
   D26        3.06866   0.00000   0.00000  -0.13013  -0.13013   2.93853
   D27       -1.14115   0.00004   0.00000  -0.12716  -0.12716  -1.26831
   D28        0.97589  -0.00002   0.00000  -0.12530  -0.12530   0.85059
   D29       -2.84356   0.00009   0.00000  -0.02367  -0.02389  -2.86745
   D30       -0.02103   0.00006   0.00000   0.00348   0.00350  -0.01754
   D31        2.85557   0.00002   0.00000   0.02649   0.02630   2.88187
   D32        0.02807  -0.00007   0.00000  -0.00500  -0.00500   0.02307
   D33        0.15984   0.00005   0.00000   0.04608   0.04608   0.20591
   D34       -3.00020   0.00012   0.00000   0.04443   0.04444  -2.95576
   D35        0.02056  -0.00002   0.00000  -0.01188  -0.01188   0.00867
   D36       -3.13182   0.00001   0.00000  -0.00265  -0.00263  -3.13445
   D37       -3.10238  -0.00009   0.00000  -0.01024  -0.01025  -3.11263
   D38        0.02842  -0.00006   0.00000  -0.00100  -0.00099   0.02744
   D39       -0.00614   0.00001   0.00000   0.00219   0.00217  -0.00397
   D40       -3.13750  -0.00001   0.00000  -0.00157  -0.00156  -3.13906
   D41        3.13768   0.00003   0.00000   0.00212   0.00213   3.13981
   D42        0.00633   0.00001   0.00000  -0.00164  -0.00161   0.00472
   D43        3.12118   0.00006   0.00000   0.00433   0.00432   3.12550
   D44       -0.02250   0.00005   0.00000   0.00440   0.00436  -0.01814
   D45        0.00728  -0.00004   0.00000  -0.00090  -0.00092   0.00636
   D46       -3.12483  -0.00006   0.00000  -0.00437  -0.00438  -3.12921
   D47       -0.02897   0.00004   0.00000   0.00536   0.00537  -0.02360
   D48        3.12346   0.00001   0.00000  -0.00395  -0.00394   3.11952
   D49        3.11634   0.00004   0.00000   0.00795   0.00795   3.12429
   D50       -0.01441   0.00001   0.00000  -0.00136  -0.00135  -0.01577
   D51       -0.05722   0.00004   0.00000  -0.00010  -0.00009  -0.05731
   D52       -3.13065  -0.00000   0.00000   0.00711   0.00711  -3.12354
   D53        3.08064   0.00005   0.00000  -0.00270  -0.00269   3.07795
   D54        0.00721   0.00000   0.00000   0.00451   0.00451   0.01172
   D55       -0.95548   0.00000   0.00000  -0.04070  -0.04070  -0.99618
   D56        1.12602  -0.00000   0.00000  -0.04108  -0.04108   1.08495
   D57       -3.06437  -0.00001   0.00000  -0.04059  -0.04059  -3.10496
   D58        2.18986  -0.00000   0.00000  -0.03810  -0.03810   2.15176
   D59       -2.01182  -0.00001   0.00000  -0.03847  -0.03848  -2.05030
   D60        0.08097  -0.00002   0.00000  -0.03798  -0.03799   0.04298
   D61        0.14683  -0.00005   0.00000  -0.10862  -0.10861   0.03821
   D62        2.25718  -0.00004   0.00000  -0.11134  -0.11134   2.14584
   D63       -1.95591  -0.00005   0.00000  -0.11472  -0.11472  -2.07063
   D64       -3.00576  -0.00002   0.00000  -0.09918  -0.09918  -3.10493
   D65       -0.89540  -0.00001   0.00000  -0.10190  -0.10191  -0.99730
   D66        1.17469  -0.00002   0.00000  -0.10529  -0.10529   1.06941
         Item               Value     Threshold  Converged?
 Maximum Force            0.000727     0.000450     NO 
 RMS     Force            0.000160     0.000300     YES
 Maximum Displacement     0.482011     0.001800     NO 
 RMS     Displacement     0.107167     0.001200     NO 
 Predicted change in Energy=-1.600961D-04
 GradGradGradGradGradGradGradGradGradGradGradGradGradGradGradGradGradGrad

                          Input orientation:                          
 ---------------------------------------------------------------------
 Center     Atomic      Atomic             Coordinates (Angstroms)
 Number     Number       Type             X           Y           Z
 ---------------------------------------------------------------------
      1          6           0        4.782057   -2.101977    1.827651
      2          6           0        3.931019   -1.838768    2.929337
      3          6           0        3.993305   -0.522630    0.450827
      4          6           0        2.769474   -2.605810    3.053064
      5          6           0        2.407076    0.466032   -0.721341
      6          1           0        1.493956    0.441835   -1.304944
      7          6           0        3.131051    1.588441   -0.449738
      8          1           0        2.933032    2.605886   -0.757503
      9         16           0        4.526017    1.163173    0.516877
     10          7           0        2.905440   -0.717808   -0.192177
     11          8           0        1.858383   -2.360415    4.051424
     12          1           0        2.063518   -1.517165    4.472193
     13          6           0        4.208771   -0.690324    3.863956
     14          1           0        5.237850   -0.338680    3.757475
     15          1           0        3.558259    0.170937    3.656307
     16          1           0        4.072147   -0.973797    4.915671
     17          6           0        3.407707   -3.995880    1.161423
     18          6           0        2.483830   -3.678437    2.185068
     19          6           0        4.556806   -3.234194    1.012447
     20          1           0        5.261097   -3.461985    0.218871
     21          6           0        1.215032   -4.474606    2.347527
     22          1           0        0.596695   -4.082686    3.153905
     23          1           0        0.625207   -4.460218    1.423332
     24          1           0        1.433950   -5.527415    2.564841
     25          6           0        3.134431   -5.153979    0.234033
     26          1           0        2.997757   -6.092485    0.783795
     27          1           0        2.217724   -4.988123   -0.343978
     28          1           0        3.954237   -5.293426   -0.474835
     29          1           0        5.757668   -1.625643    1.808174
 ---------------------------------------------------------------------
                    Distance matrix (angstroms):
                    1          2          3          4          5
     1  C    0.000000
     2  C    1.416777   0.000000
     3  C    2.238775   2.806976   0.000000
     4  C    2.409558   1.397443   3.550921   0.000000
     5  C    4.328114   4.578423   2.206253   4.879926   0.000000
     6  H    5.205357   5.391619   3.203072   5.468758   1.083958
     7  C    4.640206   4.878920   2.451758   5.476504   1.362978
     8  H    5.680307   5.860351   3.517364   6.458246   2.203840
     9  S    3.527732   3.896875   1.769202   4.870618   2.551294
    10  N    3.085015   3.471629   1.278671   3.756943   1.389194
    11  O    3.682367   2.413921   4.571614   1.373692   5.573972
    12  H    3.837455   2.443643   4.569963   1.922875   5.569910
    13  C    2.543219   1.506514   3.424033   2.529468   5.060456
    14  H    2.653523   2.154968   3.537888   3.424756   5.359164
    15  H    3.163512   2.169413   3.308384   2.948967   4.536090
    16  H    3.363426   2.171087   4.488274   2.798166   6.051569
    17  C    2.433015   2.837693   3.593235   2.432681   4.945172
    18  C    2.809772   2.456150   3.904513   1.409091   5.062581
    19  C    1.413227   2.452201   2.825869   2.784517   4.617254
    20  H    2.160388   3.427910   3.209504   3.869608   4.945580
    21  C    4.315473   3.829194   5.189835   2.531101   5.937072
    22  H    4.816577   4.025334   5.614053   2.629126   6.243865
    23  H    4.796266   4.479781   5.272044   3.269975   5.660620
    24  H    4.846327   4.469264   6.005600   3.249271   6.904157
    25  C    3.816936   4.346244   4.715301   3.817498   5.746852
    26  H    4.494164   4.854733   5.667916   4.166365   6.754886
    27  H    4.429629   4.854730   4.870835   4.185658   5.470473
    28  H    4.021452   4.850112   4.859925   4.590535   5.968738
    29  H    1.085859   2.153851   2.484352   3.382274   4.690418
                    6          7          8          9         10
     6  H    0.000000
     7  C    2.173974   0.000000
     8  H    2.655889   1.081260   0.000000
     9  S    3.610090   1.749608   2.498612   0.000000
    10  N    2.138998   2.331529   3.371542   2.582076   0.000000
    11  O    6.056079   6.121570   6.996056   5.659061   4.669329
    12  H    6.126776   5.916909   6.716049   5.375187   4.806677
    13  C    5.947229   4.996219   5.818109   3.839145   4.260474
    14  H    6.344606   5.084588   5.862395   3.641942   4.602567
    15  H    5.380404   4.364795   5.079528   3.431780   4.003358
    16  H    6.880926   6.019829   6.804161   4.911418   5.245650
    17  C    5.425746   5.818678   6.891364   5.318071   3.581935
    18  C    5.489687   5.924618   6.953647   5.513127   3.820257
    19  C    5.316441   5.237230   6.314736   4.425311   3.241963
    20  H    5.634996   5.521860   6.572081   4.692680   3.639861
    21  C    6.131047   6.946680   7.919980   6.789584   4.839535
    22  H    6.415427   7.181287   8.092872   7.064880   5.277212
    23  H    5.677001   6.809840   7.746735   6.903658   4.670648
    24  H    7.114126   7.912221   8.912676   7.649771   5.735742
    25  C    6.030982   6.777004   7.825548   6.474791   4.462477
    26  H    7.022932   7.780488   8.834106   7.419663   5.463349
    27  H    5.561631   6.640523   7.638824   6.626291   4.328000
    28  H    6.295656   6.930971   7.970062   6.557294   4.702781
    29  H    5.669674   4.725211   5.697991   3.310877   3.600107
                   11         12         13         14         15
    11  O    0.000000
    12  H    0.964467   0.000000
    13  C    2.889407   2.378178   0.000000
    14  H    3.949002   3.460641   1.092701   0.000000
    15  H    3.074645   2.397834   1.099115   1.758116   0.000000
    16  H    2.751433   2.127561   1.097783   1.761720   1.777778
    17  C    3.664322   4.348800   4.344202   4.843967   4.858958
    18  C    2.368893   3.174697   3.837044   4.605548   4.258711
    19  C    4.156965   4.597229   3.837123   4.047592   4.425157
    20  H    5.242174   5.665473   4.698526   4.719883   5.283347
    21  C    2.790514   3.739063   5.057947   5.939436   5.365136
    22  H    2.315948   3.235947   5.005936   5.993514   5.207358
    23  H    3.582843   4.475025   5.745492   6.611488   5.919169
    24  H    3.524196   4.485136   5.725800   6.543317   6.178608
    25  C    4.899466   5.686411   5.852757   6.326620   6.343999
    26  H    5.089589   5.950683   6.335400   6.853252   6.913461
    27  H    5.133569   5.938588   6.335776   6.896405   6.664474
    28  H    5.786379   6.504464   6.330754   6.641508   6.861662
    29  H    4.558123   4.555821   2.738639   2.392960   3.388318
                   16         17         18         19         20
    16  H    0.000000
    17  C    4.865064   0.000000
    18  C    4.158609   1.414979   0.000000
    19  C    4.536458   1.386646   2.422730   0.000000
    20  H    5.446524   2.146743   3.409691   1.085209   0.000000
    21  C    5.197513   2.538473   1.506694   3.806378   4.682651
    22  H    4.984755   3.446637   2.159477   4.581295   5.545840
    23  H    6.019382   2.833110   2.155435   4.138771   4.892716
    24  H    5.763846   2.865466   2.159906   4.173849   4.941319
    25  C    6.345941   1.508617   2.531213   2.512897   2.717679
    26  H    6.665409   2.169427   2.838188   3.263853   3.515874
    27  H    6.871507   2.160286   2.860448   3.222958   3.450799
    28  H    6.908738   2.158625   3.441710   2.610658   2.354419
    29  H    3.594777   3.399798   3.882528   2.159326   2.478835
                   21         22         23         24         25
    21  C    0.000000
    22  H    1.089122   0.000000
    23  H    1.096465   1.771504   0.000000
    24  H    1.097068   1.770659   1.759551   0.000000
    25  C    2.934706   4.014153   2.862157   2.909253   0.000000
    26  H    2.870697   3.927062   2.949965   2.436580   1.096226
    27  H    2.917754   3.960143   2.436838   3.060452   1.096338
    28  H    4.017392   5.089866   3.921698   3.955531   1.092713
    29  H    5.389159   5.872282   5.875803   5.872895   4.669951
                   26         27         28         29
    26  H    0.000000
    27  H    1.760663   0.000000
    28  H    1.771298   1.767996   0.000000
    29  H    5.349685   5.335656   4.681573   0.000000
 Symmetry turned off by external request.
 Stoichiometry    C12H14NOS(2)
 Framework group  C1[X(C12H14NOS)]
 Deg. of freedom    81
 Full point group                 C1      NOp   1
 Rotational constants (GHZ):           0.8217653           0.3733379           0.3268582
 Standard basis: 6-31G(d,p) (6D, 7F)
   299 basis functions,   542 primitive gaussians,   299 cartesian basis functions
    59 alpha electrons       58 beta electrons
       nuclear repulsion energy      1074.6165790425 Hartrees.
 NAtoms=   29 NActive=   29 NUniq=   29 SFac= 1.00D+00 NAtFMM=   60 NAOKFM=F Big=F
 Integral buffers will be    131072 words long.
 Raffenetti 2 integral format.
 Two-electron integral symmetry is turned off.
 Nuclear repulsion after empirical dispersion term =     1074.5887924363 Hartrees.
 One-electron integrals computed using PRISM.
 NBasis=   299 RedAO= T EigKep=  4.06D-04  NBF=   299
 NBsUse=   299 1.00D-06 EigRej= -1.00D+00 NBFU=   299
 Initial guess from the checkpoint file:  "/scratch/jcuzick/job_48780647/Gau-2329488.chk"
 B after Tr=    -0.048006   -0.053544    0.022138
         Rot=    0.999975   -0.002444    0.002597   -0.006127 Ang=  -0.81 deg.
 Initial guess <Sx>= 0.0000 <Sy>= 0.0000 <Sz>= 0.5000 <S**2>= 0.7756 S= 0.5127
 ExpMin= 1.17D-01 ExpMax= 2.19D+04 ExpMxC= 3.30D+03 IAcc=3 IRadAn=         5 AccDes= 0.00D+00
 Harris functional with IExCor=  402 and IRadAn=       5 diagonalized for initial guess.
 HarFok:  IExCor=  402 AccDes= 0.00D+00 IRadAn=         5 IDoV= 1 UseB2=F ITyADJ=14
 ICtDFT=  3500011 ScaDFX=  1.000000  1.000000  1.000000  1.000000
 FoFCou: FMM=F IPFlag=           0 FMFlag=      100000 FMFlg1=           0
         NFxFlg=           0 DoJE=T BraDBF=F KetDBF=T FulRan=T
         wScrn=  0.000000 ICntrl=       500 IOpCl=  0 I1Cent=   200000004 NGrid=           0
         NMat0=    1 NMatS0=      1 NMatT0=    0 NMatD0=    1 NMtDS0=    0 NMtDT0=    0
 Symmetry not used in FoFCou.
 Requested convergence on RMS density matrix=1.00D-08 within 128 cycles.
 Requested convergence on MAX density matrix=1.00D-06.
 Requested convergence on             energy=1.00D-06.
 No special actions if energy rises.
 Integral accuracy reduced to 1.0D-05 until final iterations.
 Initial convergence to 1.0D-05 achieved.  Increase integral accuracy.
 SCF Done:  E(UB3LYP) =  -993.824826712     A.U. after   18 cycles
            NFock= 18  Conv=0.64D-08     -V/T= 2.0070
 <Sx>= 0.0000 <Sy>= 0.0000 <Sz>= 0.5000 <S**2>= 0.7762 S= 0.5130
 <L.S>= 0.000000000000E+00
 Annihilation of the first spin contaminant:
 S**2 before annihilation     0.7762,   after     0.7505
 Calling FoFJK, ICntrl=      2127 FMM=F ISym2X=0 I1Cent= 0 IOpClX= 1 NMat=1 NMatS=1 NMatT=0.
 -------------------------------------------------------------------
 Center     Atomic                   Forces (Hartrees/Bohr)
 Number     Number              X              Y              Z
 -------------------------------------------------------------------
      1        6           0.000255898    0.001021139   -0.000654243
      2        6          -0.000827088    0.000230032    0.000482637
      3        6           0.000437736   -0.000738281    0.000405556
      4        6           0.000278881    0.000313558    0.000111572
      5        6           0.000055324    0.000060599    0.000067170
      6        1           0.000010902    0.000003715    0.000002513
      7        6          -0.000060102   -0.000097581    0.000043751
      8        1           0.000013463    0.000001695    0.000011420
      9       16          -0.000155048   -0.000149492    0.000095318
     10        7          -0.000078078    0.000173701   -0.000092455
     11        8          -0.000132609   -0.000050484   -0.000040486
     12        1           0.000042589   -0.000037750    0.000020129
     13        6           0.000097884   -0.000030286    0.000055939
     14        1          -0.000026644    0.000062938   -0.000079950
     15        1          -0.000072301    0.000019979    0.000092892
     16        1           0.000108786    0.000042626    0.000000477
     17        6           0.000350136    0.000051842   -0.000161014
     18        6          -0.000256223   -0.000157902    0.000018643
     19        6          -0.000288554   -0.000676940   -0.000446705
     20        1           0.000027264   -0.000043444    0.000021165
     21        6           0.000018596   -0.000000495   -0.000039188
     22        1          -0.000029873    0.000029365    0.000013212
     23        1          -0.000001963   -0.000013022    0.000017524
     24        1          -0.000024646    0.000013862    0.000063094
     25        6           0.000006999    0.000001018   -0.000025686
     26        1          -0.000003777   -0.000001002   -0.000004869
     27        1           0.000010288    0.000006134   -0.000012558
     28        1           0.000009556   -0.000008804    0.000008085
     29        1           0.000232603   -0.000026720    0.000026056
 -------------------------------------------------------------------
 Cartesian Forces:  Max     0.001021139 RMS     0.000236182

 GradGradGradGradGradGradGradGradGradGradGradGradGradGradGradGradGradGrad
 Berny optimization.
 FormGI is forming the generalized inverse of G from B-inverse, IUseBI=4.
 Internal  Forces:  Max     0.000933296 RMS     0.000145065
 Search for a saddle point.
 Step number   7 out of a maximum of  157
 All quantities printed in internal units (Hartrees-Bohrs-Radians)
 Swapping is turned off.
 Update second derivatives using D2CorX and points    2    6    7
 ITU=  0  0  0  0  0  0  0
     Eigenvalues ---   -0.02879   0.00013   0.00037   0.00139   0.00249
     Eigenvalues ---    0.00318   0.00375   0.00968   0.01312   0.01431
     Eigenvalues ---    0.01468   0.01522   0.01709   0.01807   0.01929
     Eigenvalues ---    0.02552   0.03050   0.03434   0.03864   0.03922
     Eigenvalues ---    0.05134   0.05467   0.05767   0.05822   0.05861
     Eigenvalues ---    0.05915   0.06017   0.06072   0.06535   0.07212
     Eigenvalues ---    0.09208   0.11202   0.11944   0.12078   0.12193
     Eigenvalues ---    0.12224   0.12484   0.14474   0.14511   0.14589
     Eigenvalues ---    0.14704   0.14881   0.15066   0.15812   0.16953
     Eigenvalues ---    0.18988   0.19075   0.19338   0.20138   0.20540
     Eigenvalues ---    0.22165   0.23214   0.25024   0.27186   0.30126
     Eigenvalues ---    0.31348   0.32198   0.32557   0.32938   0.33206
     Eigenvalues ---    0.33463   0.33676   0.33957   0.34590   0.34622
     Eigenvalues ---    0.35103   0.35252   0.36056   0.36577   0.37025
     Eigenvalues ---    0.37379   0.38452   0.39661   0.41142   0.42933
     Eigenvalues ---    0.45258   0.48430   0.48612   0.51404   0.53558
     Eigenvalues ---    0.58262
 Eigenvectors required to have negative eigenvalues:
                          R2        D18       D6        D17       D5
   1                   -0.89967  -0.16064   0.15302  -0.14518   0.14380
                          D13       D3        D4        A1        D14
   1                    0.10342  -0.10296  -0.09374   0.08921   0.08795
 RFO step:  Lambda0=3.271636857D-05 Lambda=-2.19695947D-04.
 Linear search not attempted -- option 19 set.
 Iteration  1 RMS(Cart)=  0.09611631 RMS(Int)=  0.01089315
 Iteration  2 RMS(Cart)=  0.02159632 RMS(Int)=  0.00038160
 Iteration  3 RMS(Cart)=  0.00059030 RMS(Int)=  0.00016224
 Iteration  4 RMS(Cart)=  0.00000053 RMS(Int)=  0.00016224
 Variable       Old X    -DE/DX   Delta X   Delta X   Delta X     New X
                                 (Linear)    (Quad)   (Total)
    R1        2.67732   0.00077   0.00000   0.00233   0.00234   2.67966
    R2        4.23067  -0.00093   0.00000  -0.01435  -0.01435   4.21633
    R3        2.67061   0.00070   0.00000   0.00024   0.00024   2.67085
    R4        2.05198   0.00020   0.00000  -0.00020  -0.00020   2.05178
    R5        2.64078  -0.00013   0.00000   0.00026   0.00026   2.64104
    R6        2.84690   0.00014   0.00000   0.00030   0.00030   2.84720
    R7        3.34331  -0.00018   0.00000   0.00170   0.00184   3.34515
    R8        2.41634   0.00007   0.00000   0.00058   0.00073   2.41707
    R9        2.59590   0.00003   0.00000   0.00006   0.00006   2.59596
   R10        2.66280   0.00029   0.00000  -0.00056  -0.00056   2.66224
   R11        2.04838  -0.00001   0.00000  -0.00000  -0.00000   2.04838
   R12        2.57566  -0.00012   0.00000  -0.00062  -0.00079   2.57486
   R13        2.62520  -0.00004   0.00000   0.00000  -0.00003   2.62516
   R14        2.04329  -0.00000   0.00000  -0.00001  -0.00001   2.04328
   R15        3.30628  -0.00006   0.00000   0.00005  -0.00005   3.30623
   R16        1.82258  -0.00002   0.00000   0.00012   0.00012   1.82270
   R17        2.06491   0.00000   0.00000  -0.00033  -0.00033   2.06457
   R18        2.07703   0.00004   0.00000  -0.00004  -0.00004   2.07699
   R19        2.07451  -0.00002   0.00000   0.00050   0.00050   2.07501
   R20        2.67392   0.00037   0.00000   0.00071   0.00070   2.67463
   R21        2.62038  -0.00018   0.00000  -0.00072  -0.00072   2.61966
   R22        2.85087   0.00002   0.00000  -0.00007  -0.00007   2.85080
   R23        2.84724   0.00002   0.00000   0.00007   0.00007   2.84731
   R24        2.05075   0.00001   0.00000  -0.00019  -0.00019   2.05056
   R25        2.05814   0.00004   0.00000   0.00035   0.00035   2.05850
   R26        2.07202  -0.00001   0.00000  -0.00130  -0.00130   2.07072
   R27        2.07316  -0.00001   0.00000   0.00093   0.00093   2.07409
   R28        2.07157  -0.00000   0.00000  -0.00043  -0.00043   2.07114
   R29        2.07178  -0.00000   0.00000   0.00018   0.00018   2.07196
   R30        2.06493   0.00000   0.00000  -0.00003  -0.00003   2.06490
    A1        1.70674  -0.00025   0.00000  -0.00267  -0.00268   1.70406
    A2        2.09630  -0.00002   0.00000  -0.00086  -0.00087   2.09542
    A3        2.06252   0.00002   0.00000   0.00018   0.00018   2.06271
    A4        1.72569   0.00019   0.00000  -0.00448  -0.00449   1.72120
    A5        1.56685   0.00008   0.00000   0.00761   0.00761   1.57446
    A6        2.07636  -0.00001   0.00000   0.00065   0.00065   2.07701
    A7        2.05574  -0.00011   0.00000  -0.00029  -0.00032   2.05542
    A8        2.10981  -0.00010   0.00000   0.00328   0.00326   2.11307
    A9        2.11384   0.00022   0.00000  -0.00195  -0.00197   2.11187
   A10        2.14499  -0.00032   0.00000  -0.02046  -0.02146   2.12353
   A11        2.09592   0.00031   0.00000   0.00182   0.00060   2.09652
   A12        2.00467  -0.00003   0.00000  -0.00152  -0.00212   2.00256
   A13        2.11481   0.00011   0.00000  -0.00017  -0.00017   2.11464
   A14        2.13150   0.00007   0.00000   0.00008   0.00008   2.13158
   A15        2.03669  -0.00018   0.00000   0.00010   0.00010   2.03679
   A16        2.18111  -0.00000   0.00000  -0.00012  -0.00010   2.18101
   A17        2.08090   0.00000   0.00000  -0.00023  -0.00021   2.08069
   A18        2.02117   0.00000   0.00000   0.00034   0.00031   2.02148
   A19        2.24068   0.00002   0.00000   0.00026   0.00031   2.24100
   A20        1.91074   0.00000   0.00000  -0.00021  -0.00032   1.91042
   A21        2.13174  -0.00002   0.00000  -0.00007  -0.00001   2.13173
   A22        1.54170   0.00003   0.00000   0.00051   0.00083   1.54253
   A23        1.94624  -0.00001   0.00000   0.00071   0.00112   1.94735
   A24        1.90942  -0.00003   0.00000   0.00058   0.00058   1.91000
   A25        1.93746  -0.00004   0.00000   0.00024   0.00024   1.93769
   A26        1.95091   0.00005   0.00000   0.00319   0.00319   1.95410
   A27        1.95472   0.00009   0.00000  -0.00198  -0.00198   1.95274
   A28        1.86169  -0.00002   0.00000  -0.00232  -0.00232   1.85937
   A29        1.86886  -0.00003   0.00000   0.00105   0.00105   1.86991
   A30        1.88565  -0.00006   0.00000  -0.00029  -0.00028   1.88537
   A31        2.08928   0.00005   0.00000   0.00032   0.00030   2.08958
   A32        2.09285   0.00004   0.00000   0.00015   0.00015   2.09300
   A33        2.10104  -0.00009   0.00000  -0.00047  -0.00046   2.10058
   A34        2.07607   0.00010   0.00000  -0.00007  -0.00010   2.07598
   A35        2.10195  -0.00018   0.00000  -0.00130  -0.00131   2.10065
   A36        2.10516   0.00009   0.00000   0.00137   0.00136   2.10652
   A37        2.10620  -0.00008   0.00000  -0.00033  -0.00034   2.10585
   A38        2.07893   0.00005   0.00000  -0.00014  -0.00015   2.07878
   A39        2.09564   0.00002   0.00000  -0.00004  -0.00005   2.09559
   A40        1.94741  -0.00003   0.00000  -0.00105  -0.00105   1.94637
   A41        1.93390   0.00003   0.00000   0.00164   0.00164   1.93554
   A42        1.93951   0.00004   0.00000  -0.00033  -0.00033   1.93919
   A43        1.89014  -0.00001   0.00000   0.00210   0.00210   1.89224
   A44        1.88805  -0.00003   0.00000  -0.00303  -0.00304   1.88502
   A45        1.86179   0.00000   0.00000   0.00070   0.00070   1.86248
   A46        1.95143   0.00001   0.00000   0.00078   0.00078   1.95221
   A47        1.93845   0.00000   0.00000  -0.00148  -0.00148   1.93697
   A48        1.93998  -0.00001   0.00000  -0.00034  -0.00034   1.93964
   A49        1.86468   0.00000   0.00000   0.00115   0.00115   1.86583
   A50        1.88559  -0.00001   0.00000   0.00105   0.00105   1.88664
   A51        1.88032  -0.00000   0.00000  -0.00111  -0.00111   1.87921
    D1        1.66866   0.00009   0.00000  -0.01249  -0.01248   1.65618
    D2       -1.38047   0.00004   0.00000  -0.02499  -0.02500  -1.40547
    D3       -0.16445   0.00002   0.00000  -0.00518  -0.00518  -0.16963
    D4        3.06960  -0.00003   0.00000  -0.01768  -0.01769   3.05191
    D5       -2.97493   0.00005   0.00000  -0.00518  -0.00518  -2.98011
    D6        0.25912  -0.00000   0.00000  -0.01768  -0.01769   0.24143
    D7        1.45175  -0.00011   0.00000  -0.25763  -0.25747   1.19428
    D8       -1.38353   0.00005   0.00000  -0.17741  -0.17758  -1.56111
    D9       -2.69753  -0.00015   0.00000  -0.26042  -0.26025  -2.95779
   D10        0.75037   0.00001   0.00000  -0.18021  -0.18036   0.57001
   D11       -0.61516  -0.00013   0.00000  -0.25879  -0.25864  -0.87379
   D12        2.83275   0.00003   0.00000  -0.17858  -0.17874   2.65401
   D13        0.15404  -0.00003   0.00000   0.01129   0.01128   0.16532
   D14       -3.06221  -0.00002   0.00000   0.00344   0.00344  -3.05877
   D15       -1.66852   0.00015   0.00000   0.01762   0.01761  -1.65091
   D16        1.39842   0.00016   0.00000   0.00977   0.00976   1.40819
   D17        2.96191  -0.00006   0.00000   0.01120   0.01119   2.97311
   D18       -0.25433  -0.00004   0.00000   0.00335   0.00335  -0.25098
   D19       -3.07801  -0.00002   0.00000  -0.00601  -0.00601  -3.08401
   D20        0.08477  -0.00001   0.00000  -0.00649  -0.00649   0.07829
   D21       -0.02910   0.00001   0.00000   0.00681   0.00679  -0.02231
   D22        3.13368   0.00003   0.00000   0.00633   0.00631   3.13999
   D23       -0.29861   0.00012   0.00000   0.07436   0.07436  -0.22425
   D24        1.77773   0.00010   0.00000   0.07369   0.07369   1.85142
   D25       -2.38656   0.00012   0.00000   0.07419   0.07419  -2.31237
   D26        2.93853   0.00009   0.00000   0.06134   0.06134   2.99988
   D27       -1.26831   0.00007   0.00000   0.06067   0.06067  -1.20764
   D28        0.85059   0.00009   0.00000   0.06118   0.06118   0.91176
   D29       -2.86745   0.00009   0.00000   0.07001   0.06959  -2.79786
   D30       -0.01754  -0.00000   0.00000  -0.00562  -0.00564  -0.02318
   D31        2.88187  -0.00019   0.00000  -0.07005  -0.07059   2.81128
   D32        0.02307   0.00001   0.00000   0.00730   0.00737   0.03044
   D33        0.20591  -0.00004   0.00000  -0.02062  -0.02062   0.18529
   D34       -2.95576  -0.00005   0.00000  -0.02016  -0.02016  -2.97593
   D35        0.00867   0.00000   0.00000   0.01210   0.01210   0.02077
   D36       -3.13445  -0.00000   0.00000   0.00355   0.00355  -3.13090
   D37       -3.11263   0.00001   0.00000   0.01165   0.01164  -3.10099
   D38        0.02744   0.00001   0.00000   0.00309   0.00309   0.03053
   D39       -0.00397  -0.00001   0.00000  -0.00175  -0.00178  -0.00575
   D40       -3.13906   0.00000   0.00000   0.00063   0.00062  -3.13843
   D41        3.13981   0.00001   0.00000  -0.00104  -0.00099   3.13881
   D42        0.00472   0.00002   0.00000   0.00134   0.00142   0.00613
   D43        3.12550  -0.00001   0.00000  -0.00499  -0.00503   3.12047
   D44       -0.01814  -0.00002   0.00000  -0.00565  -0.00577  -0.02391
   D45        0.00636  -0.00001   0.00000   0.00214   0.00212   0.00848
   D46       -3.12921   0.00000   0.00000   0.00434   0.00434  -3.12487
   D47       -0.02360  -0.00002   0.00000  -0.00588  -0.00588  -0.02948
   D48        3.11952  -0.00002   0.00000   0.00270   0.00270   3.12222
   D49        3.12429  -0.00000   0.00000  -0.00502  -0.00502   3.11927
   D50       -0.01577   0.00000   0.00000   0.00355   0.00355  -0.01221
   D51       -0.05731   0.00003   0.00000  -0.00564  -0.00564  -0.06295
   D52       -3.12354   0.00001   0.00000   0.00229   0.00229  -3.12125
   D53        3.07795   0.00001   0.00000  -0.00649  -0.00649   3.07145
   D54        0.01172  -0.00000   0.00000   0.00144   0.00143   0.01315
   D55       -0.99618  -0.00000   0.00000   0.03803   0.03803  -0.95815
   D56        1.08495   0.00001   0.00000   0.03901   0.03901   1.12396
   D57       -3.10496   0.00000   0.00000   0.03639   0.03639  -3.06857
   D58        2.15176   0.00001   0.00000   0.03889   0.03889   2.19065
   D59       -2.05030   0.00003   0.00000   0.03987   0.03987  -2.01043
   D60        0.04298   0.00002   0.00000   0.03725   0.03725   0.08023
   D61        0.03821   0.00003   0.00000   0.08536   0.08536   0.12357
   D62        2.14584   0.00001   0.00000   0.08845   0.08845   2.23429
   D63       -2.07063   0.00005   0.00000   0.09017   0.09017  -1.98046
   D64       -3.10493   0.00002   0.00000   0.07666   0.07666  -3.02827
   D65       -0.99730   0.00001   0.00000   0.07975   0.07975  -0.91755
   D66        1.06941   0.00005   0.00000   0.08147   0.08147   1.15088
         Item               Value     Threshold  Converged?
 Maximum Force            0.000933     0.000450     NO 
 RMS     Force            0.000145     0.000300     YES
 Maximum Displacement     0.499641     0.001800     NO 
 RMS     Displacement     0.113638     0.001200     NO 
 Predicted change in Energy=-1.362598D-04
 GradGradGradGradGradGradGradGradGradGradGradGradGradGradGradGradGradGrad

                          Input orientation:                          
 ---------------------------------------------------------------------
 Center     Atomic      Atomic             Coordinates (Angstroms)
 Number     Number       Type             X           Y           Z
 ---------------------------------------------------------------------
      1          6           0        4.813940   -2.112854    1.826200
      2          6           0        3.961740   -1.830204    2.923756
      3          6           0        4.044920   -0.541505    0.441408
      4          6           0        2.784153   -2.573524    3.042051
      5          6           0        2.463563    0.361135   -0.806436
      6          1           0        1.633210    0.285232   -1.499052
      7          6           0        2.979197    1.529170   -0.330639
      8          1           0        2.668633    2.540575   -0.553637
      9         16           0        4.308547    1.181105    0.752282
     10          7           0        3.070161   -0.800393   -0.345237
     11          8           0        1.876022   -2.312594    4.039212
     12          1           0        2.108030   -1.484488    4.475945
     13          6           0        4.262447   -0.696943    3.869991
     14          1           0        5.278849   -0.323775    3.724097
     15          1           0        3.589872    0.158237    3.714023
     16          1           0        4.179360   -1.007447    4.919942
     17          6           0        3.404535   -3.978663    1.155616
     18          6           0        2.478186   -3.636420    2.169503
     19          6           0        4.572788   -3.245566    1.016027
     20          1           0        5.277951   -3.491140    0.228687
     21          6           0        1.190135   -4.402580    2.324956
     22          1           0        0.541287   -3.946074    3.071409
     23          1           0        0.645867   -4.449001    1.375040
     24          1           0        1.381323   -5.439368    2.630167
     25          6           0        3.112464   -5.131530    0.227498
     26          1           0        2.909391   -6.057177    0.778089
     27          1           0        2.228440   -4.926019   -0.387676
     28          1           0        3.951253   -5.315583   -0.448185
     29          1           0        5.797229   -1.652751    1.808646
 ---------------------------------------------------------------------
                    Distance matrix (angstroms):
                    1          2          3          4          5
     1  C    0.000000
     2  C    1.418014   0.000000
     3  C    2.231183   2.798163   0.000000
     4  C    2.410507   1.397580   3.532984   0.000000
     5  C    4.309950   4.578301   2.207389   4.850346   0.000000
     6  H    5.188946   5.427555   3.203939   5.488057   1.083957
     7  C    4.613304   4.779317   2.453470   5.314619   1.362559
     8  H    5.649811   5.733070   3.519019   6.252705   2.203615
     9  S    3.501270   3.728747   1.770178   4.654467   2.550670
    10  N    3.078710   3.541432   1.279057   3.833995   1.389177
    11  O    3.683569   2.413952   4.559065   1.373724   5.565460
    12  H    3.839002   2.442345   4.573647   1.923328   5.606806
    13  C    2.546769   1.506674   3.438991   2.528318   5.120985
    14  H    2.649332   2.155144   3.513692   3.427837   5.377794
    15  H    3.196885   2.171797   3.377383   2.926302   4.663078
    16  H    3.346021   2.170034   4.504714   2.815258   6.132568
    17  C    2.432560   2.837723   3.568507   2.432679   4.854784
    18  C    2.809779   2.456064   3.875496   1.408796   4.983661
    19  C    1.413355   2.452766   2.814388   2.784894   4.558344
    20  H    2.160330   3.428486   3.204054   3.869893   4.881832
    21  C    4.315502   3.828508   5.158047   2.529933   5.841251
    22  H    4.813191   4.024700   5.548283   2.629677   6.106135
    23  H    4.799370   4.500182   5.262485   3.296757   5.585720
    24  H    4.847155   4.446438   5.989530   3.217241   6.828420
    25  C    3.816185   4.346244   4.688663   3.817446   5.626674
    26  H    4.503724   4.855783   5.641402   4.156567   6.626026
    27  H    4.415875   4.853244   4.817773   4.195959   5.308921
    28  H    4.021757   4.849533   4.857157   4.589419   5.879345
    29  H    1.085753   2.154989   2.484913   3.383450   4.691239
                    6          7          8          9         10
     6  H    0.000000
     7  C    2.173534   0.000000
     8  H    2.655651   1.081258   0.000000
     9  S    3.609504   1.749582   2.498579   0.000000
    10  N    2.138854   2.331383   3.371457   2.581566   0.000000
    11  O    6.122094   5.922140   6.728726   5.378385   4.789167
    12  H    6.249636   5.739713   6.466227   5.080682   4.963615
    13  C    6.058397   4.924185   5.708786   3.639959   4.381825
    14  H    6.398660   5.016242   5.772064   3.469558   4.654561
    15  H    5.569633   4.314125   4.973644   3.214757   4.203173
    16  H    7.025481   5.953437   6.695582   4.709123   5.384729
    17  C    5.325941   5.720672   6.779643   5.253868   3.530689
    18  C    5.436141   5.760645   6.753297   5.344837   3.836326
    19  C    5.237679   5.210676   6.290396   4.442388   3.176445
    20  H    5.525414   5.549831   6.618319   4.800393   3.527584
    21  C    6.065882   6.740814   7.660264   6.585995   4.862117
    22  H    6.323398   6.891707   7.729371   6.771895   5.288098
    23  H    5.625674   6.640203   7.527652   6.745454   4.706261
    24  H    7.062927   7.738223   8.687535   7.478353   5.764139
    25  C    5.874562   6.685372   7.724529   6.446346   4.369046
    26  H    6.858583   7.667256   8.703609   7.372316   5.377871
    27  H    5.361585   6.498950   7.481399   6.551589   4.210830
    28  H    6.151973   6.914431   7.960870   6.616324   4.601507
    29  H    5.660009   4.758410   5.740424   3.370879   3.578076
                   11         12         13         14         15
    11  O    0.000000
    12  H    0.964533   0.000000
    13  C    2.886865   2.372534   0.000000
    14  H    3.953977   3.459280   1.092526   0.000000
    15  H    3.024572   2.339856   1.099097   1.756439   0.000000
    16  H    2.790065   2.171431   1.098050   1.762478   1.777795
    17  C    3.664323   4.350450   4.344368   4.844415   4.867621
    18  C    2.368740   3.176083   3.836115   4.608047   4.245092
    19  C    4.157239   4.598637   3.838868   4.045866   4.453222
    20  H    5.242347   5.666944   4.700839   4.717001   5.321196
    21  C    2.788755   3.739591   5.055490   5.942375   5.337536
    22  H    2.320865   3.238334   5.004160   5.999295   5.152882
    23  H    3.629784   4.532314   5.777748   6.633255   5.946818
    24  H    3.465090   4.424486   5.685827   6.523548   6.114377
    25  C    4.899424   5.688506   5.852844   6.327238   6.353378
    26  H    5.071950   5.935133   6.334251   6.867692   6.907542
    27  H    5.152817   5.959315   6.336402   6.884208   6.672862
    28  H    5.784571   6.505522   6.330508   6.639925   6.886021
    29  H    4.559241   4.555544   2.741946   2.388273   3.432573
                   16         17         18         19         20
    16  H    0.000000
    17  C    4.857843   0.000000
    18  C    4.167783   1.415352   0.000000
    19  C    4.517136   1.386265   2.422939   0.000000
    20  H    5.420656   2.146291   3.409774   1.085111   0.000000
    21  C    5.215012   2.539809   1.506732   3.807140   4.683515
    22  H    5.028736   3.445217   2.158911   4.579117   5.542926
    23  H    6.074225   2.807065   2.156119   4.122845   4.867014
    24  H    5.719616   2.898508   2.160079   4.195672   4.974577
    25  C    6.337615   1.508579   2.531609   2.512207   2.716656
    26  H    6.653386   2.169773   2.825250   3.275463   3.535035
    27  H    6.879833   2.159266   2.874821   3.207845   3.426120
    28  H    6.886862   2.158341   3.441193   2.610592   2.355181
    29  H    3.565681   3.400191   3.883453   2.159760   2.479031
                   21         22         23         24         25
    21  C    0.000000
    22  H    1.089309   0.000000
    23  H    1.095775   1.772439   0.000000
    24  H    1.097560   1.769261   1.759849   0.000000
    25  C    2.937013   4.012990   2.804781   2.977320   0.000000
    26  H    2.843647   3.914587   2.840092   2.479289   1.095998
    27  H    2.951345   3.971404   2.416454   3.176242   1.096435
    28  H    4.018415   5.088317   3.873073   4.011997   1.092699
    29  H    5.390125   5.871867   5.877377   5.874826   4.670107
                   26         27         28         29
    26  H    0.000000
    27  H    1.761312   0.000000
    28  H    1.771775   1.767345   0.000000
    29  H    5.366621   5.317364   4.681587   0.000000
 Symmetry turned off by external request.
 Stoichiometry    C12H14NOS(2)
 Framework group  C1[X(C12H14NOS)]
 Deg. of freedom    81
 Full point group                 C1      NOp   1
 Rotational constants (GHZ):           0.8047815           0.3896968           0.3354819
 Standard basis: 6-31G(d,p) (6D, 7F)
   299 basis functions,   542 primitive gaussians,   299 cartesian basis functions
    59 alpha electrons       58 beta electrons
       nuclear repulsion energy      1079.4612017879 Hartrees.
 NAtoms=   29 NActive=   29 NUniq=   29 SFac= 1.00D+00 NAtFMM=   60 NAOKFM=F Big=F
 Integral buffers will be    131072 words long.
 Raffenetti 2 integral format.
 Two-electron integral symmetry is turned off.
 Nuclear repulsion after empirical dispersion term =     1079.4329226962 Hartrees.
 One-electron integrals computed using PRISM.
 NBasis=   299 RedAO= T EigKep=  4.06D-04  NBF=   299
 NBsUse=   299 1.00D-06 EigRej= -1.00D+00 NBFU=   299
 Initial guess from the checkpoint file:  "/scratch/jcuzick/job_48780647/Gau-2329488.chk"
 B after Tr=    -0.055189   -0.062014    0.022100
         Rot=    0.999966   -0.003745    0.003142   -0.006581 Ang=  -0.94 deg.
 Initial guess <Sx>= 0.0000 <Sy>= 0.0000 <Sz>= 0.5000 <S**2>= 0.7763 S= 0.5131
 ExpMin= 1.17D-01 ExpMax= 2.19D+04 ExpMxC= 3.30D+03 IAcc=3 IRadAn=         5 AccDes= 0.00D+00
 Harris functional with IExCor=  402 and IRadAn=       5 diagonalized for initial guess.
 HarFok:  IExCor=  402 AccDes= 0.00D+00 IRadAn=         5 IDoV= 1 UseB2=F ITyADJ=14
 ICtDFT=  3500011 ScaDFX=  1.000000  1.000000  1.000000  1.000000
 FoFCou: FMM=F IPFlag=           0 FMFlag=      100000 FMFlg1=           0
         NFxFlg=           0 DoJE=T BraDBF=F KetDBF=T FulRan=T
         wScrn=  0.000000 ICntrl=       500 IOpCl=  0 I1Cent=   200000004 NGrid=           0
         NMat0=    1 NMatS0=      1 NMatT0=    0 NMatD0=    1 NMtDS0=    0 NMtDT0=    0
 Symmetry not used in FoFCou.
 Requested convergence on RMS density matrix=1.00D-08 within 128 cycles.
 Requested convergence on MAX density matrix=1.00D-06.
 Requested convergence on             energy=1.00D-06.
 No special actions if energy rises.
 Integral accuracy reduced to 1.0D-05 until final iterations.
 Initial convergence to 1.0D-05 achieved.  Increase integral accuracy.
 SCF Done:  E(UB3LYP) =  -993.824869520     A.U. after   19 cycles
            NFock= 19  Conv=0.57D-08     -V/T= 2.0070
 <Sx>= 0.0000 <Sy>= 0.0000 <Sz>= 0.5000 <S**2>= 0.7762 S= 0.5130
 <L.S>= 0.000000000000E+00
 Annihilation of the first spin contaminant:
 S**2 before annihilation     0.7762,   after     0.7505
 Calling FoFJK, ICntrl=      2127 FMM=F ISym2X=0 I1Cent= 0 IOpClX= 1 NMat=1 NMatS=1 NMatT=0.
 -------------------------------------------------------------------
 Center     Atomic                   Forces (Hartrees/Bohr)
 Number     Number              X              Y              Z
 -------------------------------------------------------------------
      1        6           0.000162872    0.001016946   -0.000550288
      2        6          -0.000602348    0.000111444    0.000406267
      3        6          -0.000326656   -0.000252542    0.000377671
      4        6           0.000244231    0.000404448    0.000208628
      5        6           0.000049174   -0.000096545   -0.000017019
      6        1           0.000001422   -0.000017818    0.000016284
      7        6           0.000117096   -0.000088477    0.000046343
      8        1           0.000017544    0.000005192    0.000033324
      9       16           0.000187569    0.000118624   -0.000186366
     10        7          -0.000068100    0.000010491   -0.000103645
     11        8          -0.000027382   -0.000095823   -0.000045838
     12        1           0.000006567    0.000009677   -0.000032917
     13        6           0.000007678   -0.000115572    0.000192976
     14        1           0.000075669   -0.000022885   -0.000026759
     15        1          -0.000090587   -0.000075905   -0.000001337
     16        1           0.000067277    0.000019275   -0.000007402
     17        6           0.000244790   -0.000077387   -0.000040595
     18        6          -0.000169581   -0.000205436   -0.000077383
     19        6          -0.000111140   -0.000469533   -0.000358613
     20        1          -0.000014922   -0.000009750   -0.000015722
     21        6           0.000010090   -0.000004363    0.000002029
     22        1          -0.000008142    0.000009639    0.000021134
     23        1          -0.000039003    0.000009136    0.000017135
     24        1          -0.000012028    0.000012541   -0.000002229
     25        6           0.000016896   -0.000016988   -0.000025073
     26        1           0.000009925    0.000003047   -0.000007135
     27        1           0.000001496   -0.000005035   -0.000012218
     28        1          -0.000004809    0.000005947   -0.000003337
     29        1           0.000254401   -0.000182351    0.000192087
 -------------------------------------------------------------------
 Cartesian Forces:  Max     0.001016946 RMS     0.000196422

 GradGradGradGradGradGradGradGradGradGradGradGradGradGradGradGradGradGrad
 Berny optimization.
 FormGI is forming the generalized inverse of G from B-inverse, IUseBI=4.
 Internal  Forces:  Max     0.000635176 RMS     0.000113002
 Search for a saddle point.
 Step number   8 out of a maximum of  157
 All quantities printed in internal units (Hartrees-Bohrs-Radians)
 Swapping is turned off.
 Update second derivatives using D2CorX and points    2    3    4    7    8
 ITU=  0  0  0  0  0  0  0  0
     Eigenvalues ---   -0.02845   0.00046   0.00063   0.00084   0.00249
     Eigenvalues ---    0.00292   0.00363   0.00966   0.01306   0.01433
     Eigenvalues ---    0.01468   0.01522   0.01709   0.01807   0.01928
     Eigenvalues ---    0.02552   0.03049   0.03444   0.03854   0.03918
     Eigenvalues ---    0.05131   0.05451   0.05767   0.05822   0.05861
     Eigenvalues ---    0.05915   0.06017   0.06072   0.06573   0.07219
     Eigenvalues ---    0.09208   0.11201   0.11943   0.12077   0.12192
     Eigenvalues ---    0.12222   0.12484   0.14474   0.14511   0.14590
     Eigenvalues ---    0.14704   0.14881   0.15066   0.15812   0.16953
     Eigenvalues ---    0.18979   0.19076   0.19338   0.20138   0.20539
     Eigenvalues ---    0.22126   0.23217   0.25024   0.27184   0.30127
     Eigenvalues ---    0.31348   0.32198   0.32558   0.32938   0.33206
     Eigenvalues ---    0.33463   0.33676   0.33957   0.34590   0.34622
     Eigenvalues ---    0.35103   0.35252   0.36056   0.36576   0.37028
     Eigenvalues ---    0.37379   0.38460   0.39678   0.41106   0.42934
     Eigenvalues ---    0.45260   0.48414   0.48612   0.51404   0.53557
     Eigenvalues ---    0.58256
 Eigenvectors required to have negative eigenvalues:
                          R2        D18       D6        D17       D5
   1                    0.90146   0.16052  -0.15016   0.14381  -0.14250
                          D13       D3        D4        D14       A5
   1                   -0.10398   0.10322   0.09556  -0.08726  -0.08712
 RFO step:  Lambda0=1.185513531D-05 Lambda=-1.25375118D-04.
 Linear search not attempted -- option 19 set.
 Iteration  1 RMS(Cart)=  0.08132029 RMS(Int)=  0.00358994
 Iteration  2 RMS(Cart)=  0.00499689 RMS(Int)=  0.00009626
 Iteration  3 RMS(Cart)=  0.00002267 RMS(Int)=  0.00009586
 Iteration  4 RMS(Cart)=  0.00000000 RMS(Int)=  0.00009586
 Variable       Old X    -DE/DX   Delta X   Delta X   Delta X     New X
                                 (Linear)    (Quad)   (Total)
    R1        2.67966   0.00064   0.00000  -0.00144  -0.00145   2.67821
    R2        4.21633  -0.00032   0.00000   0.02673   0.02673   4.24306
    R3        2.67085   0.00057   0.00000  -0.00094  -0.00094   2.66991
    R4        2.05178   0.00015   0.00000   0.00030   0.00030   2.05208
    R5        2.64104  -0.00015   0.00000  -0.00034  -0.00034   2.64070
    R6        2.84720  -0.00004   0.00000   0.00032   0.00032   2.84752
    R7        3.34515   0.00004   0.00000  -0.00258  -0.00249   3.34266
    R8        2.41707   0.00004   0.00000  -0.00124  -0.00115   2.41592
    R9        2.59596  -0.00006   0.00000  -0.00048  -0.00048   2.59548
   R10        2.66224   0.00033   0.00000   0.00027   0.00028   2.66252
   R11        2.04838  -0.00001   0.00000  -0.00004  -0.00004   2.04834
   R12        2.57486   0.00004   0.00000   0.00034   0.00024   2.57510
   R13        2.62516  -0.00014   0.00000   0.00075   0.00073   2.62589
   R14        2.04328  -0.00001   0.00000  -0.00003  -0.00003   2.04326
   R15        3.30623  -0.00011   0.00000   0.00015   0.00009   3.30632
   R16        1.82270  -0.00001   0.00000   0.00005   0.00005   1.82275
   R17        2.06457   0.00007   0.00000  -0.00046  -0.00046   2.06411
   R18        2.07699  -0.00000   0.00000   0.00064   0.00064   2.07764
   R19        2.07501  -0.00002   0.00000   0.00024   0.00024   2.07525
   R20        2.67463   0.00021   0.00000  -0.00066  -0.00065   2.67398
   R21        2.61966  -0.00011   0.00000   0.00124   0.00124   2.62091
   R22        2.85080   0.00003   0.00000   0.00023   0.00023   2.85104
   R23        2.84731   0.00003   0.00000   0.00020   0.00020   2.84751
   R24        2.05056   0.00000   0.00000   0.00009   0.00009   2.05065
   R25        2.05850   0.00002   0.00000   0.00002   0.00002   2.05852
   R26        2.07072   0.00000   0.00000   0.00012   0.00012   2.07084
   R27        2.07409  -0.00001   0.00000  -0.00011  -0.00011   2.07397
   R28        2.07114  -0.00001   0.00000   0.00002   0.00002   2.07116
   R29        2.07196   0.00000   0.00000   0.00007   0.00007   2.07203
   R30        2.06490  -0.00000   0.00000   0.00004   0.00004   2.06495
    A1        1.70406   0.00029   0.00000  -0.00648  -0.00648   1.69758
    A2        2.09542  -0.00008   0.00000   0.00099   0.00098   2.09640
    A3        2.06271   0.00008   0.00000   0.00114   0.00109   2.06379
    A4        1.72120  -0.00023   0.00000   0.01010   0.01011   1.73131
    A5        1.57446   0.00013   0.00000  -0.01248  -0.01248   1.56198
    A6        2.07701  -0.00006   0.00000   0.00066   0.00069   2.07770
    A7        2.05542  -0.00011   0.00000   0.00074   0.00071   2.05614
    A8        2.11307   0.00014   0.00000  -0.00008  -0.00007   2.11299
    A9        2.11187  -0.00002   0.00000  -0.00052  -0.00051   2.11136
   A10        2.12353   0.00006   0.00000   0.00032  -0.00039   2.12314
   A11        2.09652  -0.00007   0.00000   0.01675   0.01614   2.11266
   A12        2.00256   0.00007   0.00000   0.00270   0.00236   2.00491
   A13        2.11464   0.00006   0.00000  -0.00019  -0.00018   2.11446
   A14        2.13158   0.00011   0.00000   0.00022   0.00021   2.13179
   A15        2.03679  -0.00017   0.00000  -0.00001  -0.00001   2.03679
   A16        2.18101   0.00002   0.00000   0.00024   0.00025   2.18126
   A17        2.08069  -0.00002   0.00000   0.00001   0.00002   2.08071
   A18        2.02148  -0.00001   0.00000  -0.00025  -0.00027   2.02121
   A19        2.24100  -0.00001   0.00000  -0.00021  -0.00018   2.24082
   A20        1.91042   0.00008   0.00000   0.00027   0.00021   1.91063
   A21        2.13173  -0.00008   0.00000  -0.00004  -0.00001   2.13172
   A22        1.54253  -0.00009   0.00000  -0.00093  -0.00075   1.54179
   A23        1.94735  -0.00006   0.00000  -0.00164  -0.00141   1.94595
   A24        1.91000  -0.00005   0.00000   0.00028   0.00028   1.91028
   A25        1.93769  -0.00005   0.00000  -0.00015  -0.00016   1.93754
   A26        1.95410  -0.00011   0.00000  -0.00140  -0.00140   1.95269
   A27        1.95274   0.00007   0.00000   0.00162   0.00162   1.95436
   A28        1.85937   0.00010   0.00000  -0.00094  -0.00095   1.85842
   A29        1.86991  -0.00002   0.00000   0.00269   0.00269   1.87260
   A30        1.88537   0.00002   0.00000  -0.00180  -0.00180   1.88357
   A31        2.08958  -0.00002   0.00000   0.00015   0.00014   2.08973
   A32        2.09300   0.00008   0.00000   0.00016   0.00017   2.09317
   A33        2.10058  -0.00007   0.00000  -0.00031  -0.00030   2.10027
   A34        2.07598   0.00006   0.00000  -0.00031  -0.00031   2.07567
   A35        2.10065  -0.00014   0.00000  -0.00014  -0.00014   2.10051
   A36        2.10652   0.00009   0.00000   0.00046   0.00046   2.10697
   A37        2.10585   0.00003   0.00000   0.00009   0.00007   2.10592
   A38        2.07878   0.00000   0.00000   0.00058   0.00058   2.07936
   A39        2.09559  -0.00003   0.00000  -0.00019  -0.00019   2.09540
   A40        1.94637  -0.00002   0.00000  -0.00006  -0.00006   1.94630
   A41        1.93554   0.00005   0.00000   0.00020   0.00020   1.93574
   A42        1.93919   0.00001   0.00000   0.00017   0.00017   1.93936
   A43        1.89224  -0.00002   0.00000  -0.00058  -0.00058   1.89165
   A44        1.88502  -0.00001   0.00000   0.00015   0.00015   1.88517
   A45        1.86248  -0.00001   0.00000   0.00011   0.00011   1.86259
   A46        1.95221   0.00001   0.00000  -0.00031  -0.00031   1.95190
   A47        1.93697   0.00002   0.00000   0.00070   0.00070   1.93766
   A48        1.93964  -0.00001   0.00000   0.00013   0.00013   1.93977
   A49        1.86583  -0.00000   0.00000  -0.00044  -0.00044   1.86539
   A50        1.88664  -0.00000   0.00000  -0.00031  -0.00031   1.88633
   A51        1.87921  -0.00001   0.00000   0.00022   0.00022   1.87943
    D1        1.65618  -0.00016   0.00000   0.02145   0.02145   1.67763
    D2       -1.40547  -0.00022   0.00000   0.01958   0.01958  -1.38589
    D3       -0.16963  -0.00004   0.00000   0.01323   0.01323  -0.15640
    D4        3.05191  -0.00011   0.00000   0.01136   0.01136   3.06327
    D5       -2.98011   0.00016   0.00000   0.00378   0.00377  -2.97634
    D6        0.24143   0.00010   0.00000   0.00190   0.00190   0.24333
    D7        1.19428   0.00028   0.00000   0.15758   0.15771   1.35199
    D8       -1.56111   0.00006   0.00000   0.09640   0.09636  -1.46475
    D9       -2.95779   0.00022   0.00000   0.15947   0.15956  -2.79823
   D10        0.57001   0.00000   0.00000   0.09829   0.09821   0.66822
   D11       -0.87379   0.00016   0.00000   0.15885   0.15889  -0.71490
   D12        2.65401  -0.00006   0.00000   0.09767   0.09754   2.75155
   D13        0.16532   0.00006   0.00000  -0.01163  -0.01162   0.15370
   D14       -3.05877   0.00008   0.00000  -0.00503  -0.00502  -3.06379
   D15       -1.65091  -0.00012   0.00000  -0.01060  -0.01061  -1.66152
   D16        1.40819  -0.00009   0.00000  -0.00400  -0.00401   1.40418
   D17        2.97311  -0.00013   0.00000  -0.00200  -0.00201   2.97110
   D18       -0.25098  -0.00010   0.00000   0.00460   0.00459  -0.24639
   D19       -3.08401   0.00000   0.00000  -0.00605  -0.00605  -3.09006
   D20        0.07829   0.00002   0.00000  -0.00735  -0.00735   0.07093
   D21       -0.02231   0.00007   0.00000  -0.00416  -0.00416  -0.02647
   D22        3.13999   0.00009   0.00000  -0.00546  -0.00546   3.13453
   D23       -0.22425   0.00006   0.00000   0.08925   0.08925  -0.13500
   D24        1.85142   0.00008   0.00000   0.08702   0.08702   1.93844
   D25       -2.31237   0.00007   0.00000   0.08485   0.08484  -2.22752
   D26        2.99988  -0.00000   0.00000   0.08726   0.08726   3.08714
   D27       -1.20764   0.00002   0.00000   0.08503   0.08503  -1.12261
   D28        0.91176   0.00001   0.00000   0.08286   0.08286   0.99462
   D29       -2.79786  -0.00013   0.00000  -0.05652  -0.05621  -2.85407
   D30       -0.02318   0.00005   0.00000   0.00456   0.00453  -0.01865
   D31        2.81128   0.00015   0.00000   0.05073   0.05096   2.86224
   D32        0.03044  -0.00006   0.00000  -0.00564  -0.00563   0.02481
   D33        0.18529   0.00002   0.00000  -0.02092  -0.02092   0.16437
   D34       -2.97593   0.00002   0.00000  -0.01968  -0.01968  -2.99561
   D35        0.02077   0.00002   0.00000  -0.00048  -0.00048   0.02029
   D36       -3.13090   0.00001   0.00000   0.00076   0.00076  -3.13014
   D37       -3.10099   0.00003   0.00000  -0.00173  -0.00173  -3.10272
   D38        0.03053   0.00002   0.00000  -0.00048  -0.00048   0.03004
   D39       -0.00575   0.00000   0.00000   0.00182   0.00184  -0.00392
   D40       -3.13843   0.00001   0.00000  -0.00055  -0.00058  -3.13901
   D41        3.13881   0.00000   0.00000   0.00184   0.00182   3.14064
   D42        0.00613   0.00001   0.00000  -0.00053  -0.00059   0.00555
   D43        3.12047   0.00003   0.00000   0.00408   0.00408   3.12455
   D44       -0.02391   0.00003   0.00000   0.00407   0.00409  -0.01982
   D45        0.00848  -0.00003   0.00000  -0.00206  -0.00201   0.00647
   D46       -3.12487  -0.00002   0.00000  -0.00425  -0.00424  -3.12911
   D47       -0.02948  -0.00002   0.00000   0.00251   0.00251  -0.02697
   D48        3.12222  -0.00001   0.00000   0.00127   0.00127   3.12349
   D49        3.11927  -0.00003   0.00000   0.00192   0.00192   3.12119
   D50       -0.01221  -0.00001   0.00000   0.00068   0.00067  -0.01154
   D51       -0.06295  -0.00002   0.00000   0.00356   0.00356  -0.05939
   D52       -3.12125  -0.00005   0.00000  -0.00314  -0.00314  -3.12439
   D53        3.07145  -0.00002   0.00000   0.00416   0.00416   3.07561
   D54        0.01315  -0.00004   0.00000  -0.00254  -0.00254   0.01061
   D55       -0.95815  -0.00001   0.00000  -0.00257  -0.00257  -0.96072
   D56        1.12396   0.00001   0.00000  -0.00287  -0.00287   1.12109
   D57       -3.06857  -0.00000   0.00000  -0.00205  -0.00205  -3.07062
   D58        2.19065  -0.00001   0.00000  -0.00317  -0.00317   2.18748
   D59       -2.01043   0.00000   0.00000  -0.00347  -0.00347  -2.01390
   D60        0.08023  -0.00001   0.00000  -0.00265  -0.00265   0.07758
   D61        0.12357  -0.00000   0.00000  -0.00826  -0.00826   0.11532
   D62        2.23429  -0.00002   0.00000  -0.00890  -0.00890   2.22539
   D63       -1.98046   0.00001   0.00000  -0.00853  -0.00853  -1.98899
   D64       -3.02827  -0.00002   0.00000  -0.00699  -0.00699  -3.03527
   D65       -0.91755  -0.00003   0.00000  -0.00764  -0.00764  -0.92520
   D66        1.15088  -0.00001   0.00000  -0.00726  -0.00726   1.14361
         Item               Value     Threshold  Converged?
 Maximum Force            0.000635     0.000450     NO 
 RMS     Force            0.000113     0.000300     YES
 Maximum Displacement     0.385326     0.001800     NO 
 RMS     Displacement     0.080405     0.001200     NO 
 Predicted change in Energy=-6.664156D-05
 GradGradGradGradGradGradGradGradGradGradGradGradGradGradGradGradGradGrad

                          Input orientation:                          
 ---------------------------------------------------------------------
 Center     Atomic      Atomic             Coordinates (Angstroms)
 Number     Number       Type             X           Y           Z
 ---------------------------------------------------------------------
      1          6           0        4.787670   -2.111952    1.821520
      2          6           0        3.933179   -1.835229    2.917813
      3          6           0        4.001856   -0.524759    0.441369
      4          6           0        2.770623   -2.599689    3.047393
      5          6           0        2.443849    0.460237   -0.770888
      6          1           0        1.568786    0.430048   -1.409848
      7          6           0        3.098321    1.595041   -0.395654
      8          1           0        2.872539    2.618908   -0.659862
      9         16           0        4.451909    1.175406    0.630461
     10          7           0        2.963314   -0.729569   -0.275506
     11          8           0        1.864269   -2.350299    4.048764
     12          1           0        2.094362   -1.525126    4.492073
     13          6           0        4.215265   -0.688151    3.853339
     14          1           0        5.188625   -0.240135    3.641369
     15          1           0        3.472759    0.116191    3.750959
     16          1           0        4.224767   -1.007521    4.904006
     17          6           0        3.403301   -4.000716    1.162487
     18          6           0        2.478184   -3.671968    2.181473
     19          6           0        4.558456   -3.247806    1.013151
     20          1           0        5.263744   -3.485318    0.223387
     21          6           0        1.205030   -4.460388    2.348900
     22          1           0        0.556700   -4.016733    3.103525
     23          1           0        0.650825   -4.513372    1.405017
     24          1           0        1.416949   -5.494549    2.649074
     25          6           0        3.125466   -5.161247    0.239363
     26          1           0        2.945074   -6.089186    0.793999
     27          1           0        2.232251   -4.975028   -0.368699
     28          1           0        3.961948   -5.331140   -0.442896
     29          1           0        5.763475   -1.636092    1.797595
 ---------------------------------------------------------------------
                    Distance matrix (angstroms):
                    1          2          3          4          5
     1  C    0.000000
     2  C    1.417247   0.000000
     3  C    2.245329   2.802646   0.000000
     4  C    2.410214   1.397400   3.551427   0.000000
     5  C    4.339381   4.592797   2.206166   4.903998   0.000000
     6  H    5.221563   5.426830   3.202888   5.521840   1.083936
     7  C    4.638055   4.841777   2.451639   5.436700   1.362686
     8  H    5.675035   5.810685   3.517202   6.402178   2.203625
     9  S    3.512560   3.816410   1.768859   4.787445   2.550990
    10  N    3.104316   3.515737   1.278447   3.817870   1.389563
    11  O    3.682893   2.413449   4.573312   1.373469   5.609285
    12  H    3.837984   2.440431   4.587753   1.923308   5.635829
    13  C    2.546202   1.506841   3.422540   2.527948   5.083324
    14  H    2.641271   2.154995   3.424826   3.430312   5.243313
    15  H    3.227437   2.171212   3.412353   2.892059   4.650175
    16  H    3.322400   2.171425   4.494205   2.845443   6.126206
    17  C    2.432742   2.837476   3.600078   2.432288   4.955662
    18  C    2.810150   2.456179   3.905697   1.408943   5.078654
    19  C    1.412857   2.452362   2.837557   2.784698   4.626440
    20  H    2.160280   3.428283   3.225645   3.869754   4.950534
    21  C    4.316086   3.828566   5.191348   2.530054   5.956534
    22  H    4.813818   4.024185   5.581225   2.629186   6.214151
    23  H    4.801435   4.498316   5.297836   3.294408   5.717192
    24  H    4.846501   4.449074   6.021174   3.220451   6.943353
    25  C    3.816326   4.346135   4.722911   3.817398   5.752068
    26  H    4.502150   4.856242   5.674856   4.157500   6.752410
    27  H    4.418646   4.853107   4.857223   4.195445   5.454231
    28  H    4.021514   4.849390   4.887210   4.589357   5.996020
    29  H    1.085914   2.155116   2.485500   3.383442   4.691653
                    6          7          8          9         10
     6  H    0.000000
     7  C    2.173770   0.000000
     8  H    2.655816   1.081244   0.000000
     9  S    3.609823   1.749630   2.498608   0.000000
    10  N    2.139194   2.331625   3.371687   2.581787   0.000000
    11  O    6.133033   6.069715   6.919595   5.550790   4.746997
    12  H    6.239520   5.885002   6.657403   5.269056   4.910987
    13  C    5.996279   4.951209   5.754002   3.730387   4.314679
    14  H    6.250374   4.902530   5.660298   3.407650   4.531387
    15  H    5.509769   4.418326   5.106780   3.437758   4.145753
    16  H    6.998971   6.010707   6.777620   4.804160   5.338152
    17  C    5.441877   5.816640   6.886370   5.308001   3.600252
    18  C    5.527307   5.896400   6.914031   5.458779   3.863911
    19  C    5.323126   5.250704   6.329268   4.441015   3.247559
    20  H    5.625856   5.557186   6.615101   4.748382   3.624227
    21  C    6.178744   6.912695   7.870812   6.727365   4.888566
    22  H    6.416286   7.084921   7.972323   6.946007   5.292929
    23  H    5.762250   6.822416   7.750430   6.885519   4.742249
    24  H    7.183228   7.896814   8.882342   7.600927   5.800815
    25  C    6.033716   6.786119   7.836032   6.485799   4.464432
    26  H    7.017943   7.777281   8.828923   7.421024   5.465315
    27  H    5.544279   6.626960   7.626442   6.614608   4.308951
    28  H    6.312964   6.979976   8.027276   6.612663   4.711661
    29  H    5.670277   4.727960   5.701020   3.314653   3.600060
                   11         12         13         14         15
    11  O    0.000000
    12  H    0.964559   0.000000
    13  C    2.885847   2.367856   0.000000
    14  H    3.958548   3.456785   1.092281   0.000000
    15  H    2.959645   2.267851   1.099438   1.755897   0.000000
    16  H    2.847181   2.230747   1.098175   1.764130   1.777009
    17  C    3.663754   4.350632   4.344313   4.845019   4.863531
    18  C    2.368645   3.177282   3.836111   4.610343   4.219314
    19  C    4.156815   4.598073   3.838786   4.043603   4.471108
    20  H    5.241966   5.666481   4.701063   4.713751   5.349977
    21  C    2.788657   3.741639   5.055158   5.945590   5.296550
    22  H    2.319530   3.240459   5.002678   6.000559   5.099376
    23  H    3.625015   4.532474   5.773372   6.622194   5.907589
    24  H    3.470668   4.428527   5.690544   6.543627   6.076258
    25  C    4.899346   5.689472   5.852954   6.328319   6.348486
    26  H    5.073551   5.935495   6.335940   6.881311   6.894111
    27  H    5.151562   5.962209   6.335240   6.873136   6.665655
    28  H    5.784521   6.505961   6.330810   6.641106   6.892108
    29  H    4.558691   4.553560   2.742558   2.382992   3.483318
                   16         17         18         19         20
    16  H    0.000000
    17  C    4.861376   0.000000
    18  C    4.190706   1.415008   0.000000
    19  C    4.502108   1.386924   2.423308   0.000000
    20  H    5.396956   2.146809   3.410026   1.085159   0.000000
    21  C    5.250683   2.539935   1.506838   3.807893   4.684200
    22  H    5.074624   3.445435   2.158969   4.579844   5.543813
    23  H    6.107943   2.810295   2.156406   4.126112   4.871567
    24  H    5.753432   2.896045   2.160249   4.194421   4.971800
    25  C    6.341987   1.508703   2.531545   2.512661   2.716841
    26  H    6.659812   2.169669   2.825954   3.274824   3.532982
    27  H    6.892942   2.159901   2.874339   3.209990   3.429249
    28  H    6.881287   2.158558   3.441180   2.610781   2.354924
    29  H    3.523139   3.400769   3.883978   2.159871   2.479414
                   21         22         23         24         25
    21  C    0.000000
    22  H    1.089321   0.000000
    23  H    1.095840   1.772129   0.000000
    24  H    1.097499   1.769320   1.759924   0.000000
    25  C    2.937589   4.013963   2.811110   2.972681   0.000000
    26  H    2.845779   3.915776   2.849581   2.475896   1.096008
    27  H    2.950489   3.972674   2.420765   3.168844   1.096471
    28  H    4.019071   5.089252   3.879054   4.007992   1.092722
    29  H    5.390733   5.872258   5.879800   5.874095   4.670535
                   26         27         28         29
    26  H    0.000000
    27  H    1.761060   0.000000
    28  H    1.771603   1.767533   0.000000
    29  H    5.364759   5.320795   4.681739   0.000000
 Symmetry turned off by external request.
 Stoichiometry    C12H14NOS(2)
 Framework group  C1[X(C12H14NOS)]
 Deg. of freedom    81
 Full point group                 C1      NOp   1
 Rotational constants (GHZ):           0.8188300           0.3767780           0.3278800
 Standard basis: 6-31G(d,p) (6D, 7F)
   299 basis functions,   542 primitive gaussians,   299 cartesian basis functions
    59 alpha electrons       58 beta electrons
       nuclear repulsion energy      1075.4205638694 Hartrees.
 NAtoms=   29 NActive=   29 NUniq=   29 SFac= 1.00D+00 NAtFMM=   60 NAOKFM=F Big=F
 Integral buffers will be    131072 words long.
 Raffenetti 2 integral format.
 Two-electron integral symmetry is turned off.
 Nuclear repulsion after empirical dispersion term =     1075.3926639783 Hartrees.
 One-electron integrals computed using PRISM.
 NBasis=   299 RedAO= T EigKep=  4.01D-04  NBF=   299
 NBsUse=   299 1.00D-06 EigRej= -1.00D+00 NBFU=   299
 Initial guess from the checkpoint file:  "/scratch/jcuzick/job_48780647/Gau-2329488.chk"
 B after Tr=     0.041795    0.052042   -0.014697
         Rot=    0.999987    0.001471   -0.001313    0.004635 Ang=   0.58 deg.
 Initial guess <Sx>= 0.0000 <Sy>= 0.0000 <Sz>= 0.5000 <S**2>= 0.7763 S= 0.5130
 ExpMin= 1.17D-01 ExpMax= 2.19D+04 ExpMxC= 3.30D+03 IAcc=3 IRadAn=         5 AccDes= 0.00D+00
 Harris functional with IExCor=  402 and IRadAn=       5 diagonalized for initial guess.
 HarFok:  IExCor=  402 AccDes= 0.00D+00 IRadAn=         5 IDoV= 1 UseB2=F ITyADJ=14
 ICtDFT=  3500011 ScaDFX=  1.000000  1.000000  1.000000  1.000000
 FoFCou: FMM=F IPFlag=           0 FMFlag=      100000 FMFlg1=           0
         NFxFlg=           0 DoJE=T BraDBF=F KetDBF=T FulRan=T
         wScrn=  0.000000 ICntrl=       500 IOpCl=  0 I1Cent=   200000004 NGrid=           0
         NMat0=    1 NMatS0=      1 NMatT0=    0 NMatD0=    1 NMtDS0=    0 NMtDT0=    0
 Symmetry not used in FoFCou.
 Requested convergence on RMS density matrix=1.00D-08 within 128 cycles.
 Requested convergence on MAX density matrix=1.00D-06.
 Requested convergence on             energy=1.00D-06.
 No special actions if energy rises.
 Integral accuracy reduced to 1.0D-05 until final iterations.
 Initial convergence to 1.0D-05 achieved.  Increase integral accuracy.
 SCF Done:  E(UB3LYP) =  -993.824862894     A.U. after   17 cycles
            NFock= 17  Conv=0.46D-08     -V/T= 2.0070
 <Sx>= 0.0000 <Sy>= 0.0000 <Sz>= 0.5000 <S**2>= 0.7756 S= 0.5127
 <L.S>= 0.000000000000E+00
 Annihilation of the first spin contaminant:
 S**2 before annihilation     0.7756,   after     0.7505
 Calling FoFJK, ICntrl=      2127 FMM=F ISym2X=0 I1Cent= 0 IOpClX= 1 NMat=1 NMatS=1 NMatT=0.
 -------------------------------------------------------------------
 Center     Atomic                   Forces (Hartrees/Bohr)
 Number     Number              X              Y              Z
 -------------------------------------------------------------------
      1        6          -0.000238481    0.000609898   -0.000151882
      2        6          -0.000061792    0.000009254    0.000184575
      3        6           0.000292202   -0.000272449   -0.000152983
      4        6           0.000128596    0.000016358    0.000102311
      5        6          -0.000095961   -0.000125615    0.000104826
      6        1           0.000003395   -0.000003062    0.000006676
      7        6           0.000010877    0.000002332    0.000029471
      8        1           0.000024875   -0.000002475   -0.000011090
      9       16          -0.000058479    0.000062434    0.000000019
     10        7           0.000085094   -0.000022765    0.000057796
     11        8          -0.000023032   -0.000017246   -0.000016650
     12        1           0.000011908   -0.000006705    0.000005680
     13        6          -0.000152899    0.000004906    0.000022444
     14        1           0.000042507   -0.000036495    0.000066079
     15        1           0.000135933    0.000014181   -0.000014201
     16        1          -0.000050517    0.000000279    0.000007239
     17        6           0.000096228    0.000058944   -0.000089936
     18        6          -0.000105150   -0.000040427    0.000014672
     19        6          -0.000178373   -0.000135054   -0.000232210
     20        1           0.000033138   -0.000023808    0.000006436
     21        6           0.000007191    0.000001404   -0.000012520
     22        1           0.000002704   -0.000004473    0.000012846
     23        1          -0.000003356    0.000013405    0.000006525
     24        1          -0.000004342   -0.000005586   -0.000000659
     25        6          -0.000001908   -0.000002690   -0.000003291
     26        1           0.000009410   -0.000003711   -0.000002082
     27        1          -0.000009854   -0.000009570    0.000011000
     28        1           0.000000958   -0.000001847   -0.000005273
     29        1           0.000099129   -0.000079416    0.000054180
 -------------------------------------------------------------------
 Cartesian Forces:  Max     0.000609898 RMS     0.000105604

 GradGradGradGradGradGradGradGradGradGradGradGradGradGradGradGradGradGrad
 Berny optimization.
 FormGI is forming the generalized inverse of G from B-inverse, IUseBI=4.
 Internal  Forces:  Max     0.000392170 RMS     0.000087262
 Search for a saddle point.
 Step number   9 out of a maximum of  157
 All quantities printed in internal units (Hartrees-Bohrs-Radians)
 Swapping is turned off.
 Update second derivatives using D2CorX and points    2    4    7    8    9
 ITU=  0  0  0  0  0  0  0  0  0
     Eigenvalues ---   -0.02681   0.00054   0.00078   0.00102   0.00249
     Eigenvalues ---    0.00326   0.00367   0.00966   0.01307   0.01432
     Eigenvalues ---    0.01468   0.01523   0.01709   0.01807   0.01928
     Eigenvalues ---    0.02552   0.03050   0.03461   0.03872   0.03920
     Eigenvalues ---    0.05133   0.05468   0.05767   0.05822   0.05861
     Eigenvalues ---    0.05915   0.06017   0.06072   0.06610   0.07258
     Eigenvalues ---    0.09208   0.11202   0.11943   0.12079   0.12193
     Eigenvalues ---    0.12225   0.12484   0.14476   0.14511   0.14590
     Eigenvalues ---    0.14704   0.14881   0.15066   0.15812   0.16953
     Eigenvalues ---    0.18987   0.19075   0.19339   0.20138   0.20539
     Eigenvalues ---    0.22157   0.23218   0.25025   0.27187   0.30128
     Eigenvalues ---    0.31348   0.32198   0.32558   0.32938   0.33206
     Eigenvalues ---    0.33464   0.33676   0.33957   0.34590   0.34622
     Eigenvalues ---    0.35103   0.35252   0.36056   0.36577   0.37029
     Eigenvalues ---    0.37379   0.38469   0.39695   0.41139   0.42936
     Eigenvalues ---    0.45264   0.48427   0.48612   0.51405   0.53558
     Eigenvalues ---    0.58263
 Eigenvectors required to have negative eigenvalues:
                          R2        D18       D6        D17       D5
   1                    0.89867   0.16189  -0.15283   0.14526  -0.14368
                          D13       D3        D4        D14       A1
   1                   -0.10429   0.10402   0.09487  -0.08766  -0.08271
 RFO step:  Lambda0=5.044460360D-06 Lambda=-7.21089535D-05.
 Linear search not attempted -- option 19 set.
 Iteration  1 RMS(Cart)=  0.03816585 RMS(Int)=  0.00068944
 Iteration  2 RMS(Cart)=  0.00088512 RMS(Int)=  0.00007937
 Iteration  3 RMS(Cart)=  0.00000058 RMS(Int)=  0.00007937
 Variable       Old X    -DE/DX   Delta X   Delta X   Delta X     New X
                                 (Linear)    (Quad)   (Total)
    R1        2.67821   0.00024   0.00000  -0.00069  -0.00069   2.67752
    R2        4.24306  -0.00037   0.00000   0.00129   0.00129   4.24435
    R3        2.66991   0.00024   0.00000   0.00067   0.00067   2.67059
    R4        2.05208   0.00005   0.00000   0.00002   0.00002   2.05210
    R5        2.64070  -0.00002   0.00000   0.00020   0.00020   2.64091
    R6        2.84752   0.00003   0.00000  -0.00015  -0.00015   2.84736
    R7        3.34266   0.00001   0.00000   0.00109   0.00115   3.34381
    R8        2.41592  -0.00012   0.00000   0.00030   0.00036   2.41628
    R9        2.59548  -0.00000   0.00000  -0.00000  -0.00000   2.59548
   R10        2.66252   0.00008   0.00000   0.00013   0.00013   2.66264
   R11        2.04834  -0.00001   0.00000  -0.00000  -0.00000   2.04834
   R12        2.57510   0.00006   0.00000   0.00006  -0.00001   2.57509
   R13        2.62589  -0.00011   0.00000  -0.00082  -0.00083   2.62506
   R14        2.04326  -0.00000   0.00000   0.00002   0.00002   2.04327
   R15        3.30632   0.00000   0.00000   0.00005   0.00001   3.30633
   R16        1.82275  -0.00000   0.00000  -0.00004  -0.00004   1.82271
   R17        2.06411   0.00001   0.00000   0.00035   0.00035   2.06447
   R18        2.07764  -0.00008   0.00000  -0.00046  -0.00046   2.07717
   R19        2.07525   0.00001   0.00000  -0.00014  -0.00014   2.07511
   R20        2.67398   0.00009   0.00000   0.00005   0.00004   2.67402
   R21        2.62091  -0.00007   0.00000  -0.00046  -0.00046   2.62045
   R22        2.85104   0.00001   0.00000  -0.00001  -0.00001   2.85102
   R23        2.84751  -0.00000   0.00000  -0.00012  -0.00012   2.84740
   R24        2.05065   0.00002   0.00000   0.00006   0.00006   2.05071
   R25        2.05852   0.00001   0.00000  -0.00001  -0.00001   2.05851
   R26        2.07084  -0.00000   0.00000  -0.00001  -0.00001   2.07083
   R27        2.07397   0.00000   0.00000  -0.00003  -0.00003   2.07394
   R28        2.07116   0.00000   0.00000   0.00005   0.00005   2.07121
   R29        2.07203  -0.00000   0.00000  -0.00004  -0.00004   2.07199
   R30        2.06495   0.00000   0.00000   0.00002   0.00002   2.06497
    A1        1.69758   0.00030   0.00000   0.00250   0.00249   1.70007
    A2        2.09640  -0.00001   0.00000   0.00025   0.00024   2.09665
    A3        2.06379  -0.00000   0.00000   0.00024   0.00022   2.06402
    A4        1.73131  -0.00039   0.00000  -0.01188  -0.01188   1.71944
    A5        1.56198   0.00013   0.00000   0.00812   0.00812   1.57010
    A6        2.07770  -0.00000   0.00000   0.00003   0.00005   2.07775
    A7        2.05614  -0.00007   0.00000  -0.00067  -0.00067   2.05547
    A8        2.11299   0.00012   0.00000   0.00015   0.00015   2.11315
    A9        2.11136  -0.00005   0.00000   0.00040   0.00040   2.11176
   A10        2.12314   0.00028   0.00000   0.00703   0.00647   2.12960
   A11        2.11266  -0.00038   0.00000  -0.01967  -0.02006   2.09259
   A12        2.00491   0.00007   0.00000  -0.00147  -0.00172   2.00319
   A13        2.11446   0.00001   0.00000   0.00024   0.00024   2.11470
   A14        2.13179   0.00005   0.00000   0.00017   0.00017   2.13196
   A15        2.03679  -0.00006   0.00000  -0.00040  -0.00040   2.03638
   A16        2.18126   0.00002   0.00000   0.00003   0.00003   2.18129
   A17        2.08071   0.00001   0.00000   0.00021   0.00021   2.08092
   A18        2.02121  -0.00003   0.00000  -0.00023  -0.00025   2.02097
   A19        2.24082   0.00000   0.00000   0.00022   0.00025   2.24106
   A20        1.91063   0.00002   0.00000  -0.00009  -0.00014   1.91048
   A21        2.13172  -0.00002   0.00000  -0.00014  -0.00012   2.13161
   A22        1.54179  -0.00007   0.00000   0.00041   0.00055   1.54233
   A23        1.94595   0.00001   0.00000   0.00130   0.00147   1.94742
   A24        1.91028  -0.00001   0.00000  -0.00029  -0.00029   1.91000
   A25        1.93754   0.00001   0.00000  -0.00015  -0.00015   1.93739
   A26        1.95269   0.00010   0.00000   0.00038   0.00038   1.95307
   A27        1.95436  -0.00003   0.00000  -0.00037  -0.00037   1.95399
   A28        1.85842  -0.00004   0.00000   0.00112   0.00112   1.85955
   A29        1.87260  -0.00002   0.00000  -0.00188  -0.00188   1.87072
   A30        1.88357  -0.00001   0.00000   0.00090   0.00090   1.88447
   A31        2.08973   0.00001   0.00000  -0.00044  -0.00044   2.08929
   A32        2.09317  -0.00001   0.00000   0.00014   0.00014   2.09331
   A33        2.10027   0.00000   0.00000   0.00030   0.00030   2.10057
   A34        2.07567   0.00002   0.00000   0.00021   0.00021   2.07588
   A35        2.10051  -0.00002   0.00000  -0.00006  -0.00006   2.10045
   A36        2.10697   0.00000   0.00000  -0.00014  -0.00014   2.10683
   A37        2.10592  -0.00000   0.00000   0.00002   0.00002   2.10594
   A38        2.07936  -0.00000   0.00000  -0.00026  -0.00026   2.07910
   A39        2.09540   0.00001   0.00000   0.00020   0.00020   2.09560
   A40        1.94630  -0.00000   0.00000   0.00006   0.00006   1.94636
   A41        1.93574  -0.00000   0.00000  -0.00027  -0.00027   1.93547
   A42        1.93936   0.00001   0.00000   0.00002   0.00002   1.93938
   A43        1.89165   0.00000   0.00000  -0.00000  -0.00000   1.89165
   A44        1.88517  -0.00001   0.00000   0.00011   0.00011   1.88528
   A45        1.86259   0.00000   0.00000   0.00010   0.00010   1.86270
   A46        1.95190  -0.00000   0.00000  -0.00002  -0.00002   1.95187
   A47        1.93766   0.00000   0.00000   0.00009   0.00009   1.93775
   A48        1.93977   0.00000   0.00000  -0.00003  -0.00003   1.93974
   A49        1.86539  -0.00000   0.00000   0.00003   0.00003   1.86541
   A50        1.88633  -0.00001   0.00000  -0.00012  -0.00012   1.88621
   A51        1.87943   0.00000   0.00000   0.00005   0.00005   1.87948
    D1        1.67763  -0.00026   0.00000  -0.01645  -0.01646   1.66117
    D2       -1.38589  -0.00027   0.00000  -0.01475  -0.01476  -1.40065
    D3       -0.15640   0.00002   0.00000  -0.00397  -0.00397  -0.16036
    D4        3.06327   0.00001   0.00000  -0.00227  -0.00227   3.06101
    D5       -2.97634   0.00006   0.00000  -0.00574  -0.00575  -2.98208
    D6        0.24333   0.00004   0.00000  -0.00404  -0.00405   0.23928
    D7        1.35199  -0.00004   0.00000  -0.01959  -0.01952   1.33247
    D8       -1.46475   0.00007   0.00000   0.03316   0.03310  -1.43165
    D9       -2.79823  -0.00007   0.00000  -0.02165  -0.02157  -2.81980
   D10        0.66822   0.00004   0.00000   0.03110   0.03105   0.69927
   D11       -0.71490  -0.00008   0.00000  -0.02112  -0.02107  -0.73597
   D12        2.75155   0.00003   0.00000   0.03163   0.03155   2.78310
   D13        0.15370   0.00002   0.00000   0.00268   0.00268   0.15638
   D14       -3.06379   0.00004   0.00000   0.00209   0.00209  -3.06170
   D15       -1.66152  -0.00009   0.00000   0.00718   0.00718  -1.65434
   D16        1.40418  -0.00007   0.00000   0.00659   0.00659   1.41077
   D17        2.97110  -0.00002   0.00000   0.00451   0.00451   2.97560
   D18       -0.24639   0.00001   0.00000   0.00392   0.00392  -0.24247
   D19       -3.09006  -0.00002   0.00000   0.00310   0.00310  -3.08697
   D20        0.07093  -0.00004   0.00000   0.00301   0.00301   0.07394
   D21       -0.02647   0.00000   0.00000   0.00139   0.00139  -0.02508
   D22        3.13453  -0.00002   0.00000   0.00130   0.00130   3.13582
   D23       -0.13500  -0.00008   0.00000  -0.05716  -0.05717  -0.19217
   D24        1.93844  -0.00007   0.00000  -0.05560  -0.05560   1.88284
   D25       -2.22752  -0.00004   0.00000  -0.05442  -0.05442  -2.28195
   D26        3.08714  -0.00010   0.00000  -0.05536  -0.05536   3.03177
   D27       -1.12261  -0.00008   0.00000  -0.05379  -0.05379  -1.17640
   D28        0.99462  -0.00006   0.00000  -0.05262  -0.05262   0.94200
   D29       -2.85407   0.00018   0.00000   0.05002   0.05041  -2.80366
   D30       -0.01865  -0.00000   0.00000  -0.00302  -0.00303  -0.02168
   D31        2.86224  -0.00008   0.00000  -0.04380  -0.04345   2.81880
   D32        0.02481  -0.00002   0.00000   0.00379   0.00377   0.02858
   D33        0.16437  -0.00002   0.00000   0.00957   0.00957   0.17394
   D34       -2.99561  -0.00000   0.00000   0.00966   0.00966  -2.98595
   D35        0.02029   0.00003   0.00000  -0.00064  -0.00064   0.01964
   D36       -3.13014   0.00002   0.00000  -0.00035  -0.00035  -3.13049
   D37       -3.10272   0.00001   0.00000  -0.00074  -0.00074  -3.10346
   D38        0.03004  -0.00000   0.00000  -0.00044  -0.00044   0.02960
   D39       -0.00392   0.00001   0.00000  -0.00173  -0.00170  -0.00562
   D40       -3.13901  -0.00001   0.00000   0.00061   0.00059  -3.13842
   D41        3.14064  -0.00003   0.00000  -0.00190  -0.00192   3.13872
   D42        0.00555  -0.00005   0.00000   0.00044   0.00037   0.00592
   D43        3.12455   0.00001   0.00000  -0.00293  -0.00292   3.12163
   D44       -0.01982   0.00005   0.00000  -0.00277  -0.00272  -0.02254
   D45        0.00647   0.00003   0.00000   0.00131   0.00136   0.00782
   D46       -3.12911   0.00001   0.00000   0.00347   0.00347  -3.12564
   D47       -0.02697   0.00001   0.00000  -0.00082  -0.00082  -0.02778
   D48        3.12349   0.00002   0.00000  -0.00111  -0.00111   3.12238
   D49        3.12119  -0.00002   0.00000  -0.00066  -0.00066   3.12053
   D50       -0.01154  -0.00001   0.00000  -0.00096  -0.00096  -0.01249
   D51       -0.05939  -0.00004   0.00000  -0.00016  -0.00016  -0.05955
   D52       -3.12439  -0.00006   0.00000   0.00046   0.00045  -3.12394
   D53        3.07561  -0.00001   0.00000  -0.00032  -0.00032   3.07529
   D54        0.01061  -0.00003   0.00000   0.00030   0.00029   0.01090
   D55       -0.96072   0.00000   0.00000  -0.00369  -0.00369  -0.96440
   D56        1.12109   0.00000   0.00000  -0.00361  -0.00361   1.11748
   D57       -3.07062   0.00001   0.00000  -0.00350  -0.00350  -3.07412
   D58        2.18748  -0.00002   0.00000  -0.00352  -0.00352   2.18395
   D59       -2.01390  -0.00003   0.00000  -0.00345  -0.00345  -2.01735
   D60        0.07758  -0.00002   0.00000  -0.00334  -0.00334   0.07424
   D61        0.11532  -0.00001   0.00000  -0.00195  -0.00195   0.11337
   D62        2.22539  -0.00001   0.00000  -0.00211  -0.00211   2.22328
   D63       -1.98899  -0.00000   0.00000  -0.00214  -0.00214  -1.99113
   D64       -3.03527  -0.00001   0.00000  -0.00165  -0.00165  -3.03691
   D65       -0.92520  -0.00002   0.00000  -0.00180  -0.00180  -0.92700
   D66        1.14361  -0.00001   0.00000  -0.00184  -0.00184   1.14177
         Item               Value     Threshold  Converged?
 Maximum Force            0.000392     0.000450     YES
 RMS     Force            0.000087     0.000300     YES
 Maximum Displacement     0.128819     0.001800     NO 
 RMS     Displacement     0.038250     0.001200     NO 
 Predicted change in Energy=-3.458728D-05
 GradGradGradGradGradGradGradGradGradGradGradGradGradGradGradGradGradGrad

                          Input orientation:                          
 ---------------------------------------------------------------------
 Center     Atomic      Atomic             Coordinates (Angstroms)
 Number     Number       Type             X           Y           Z
 ---------------------------------------------------------------------
      1          6           0        4.806906   -2.116492    1.830200
      2          6           0        3.946321   -1.831788    2.919185
      3          6           0        4.029952   -0.543223    0.428151
      4          6           0        2.774232   -2.583735    3.036690
      5          6           0        2.415804    0.413952   -0.733494
      6          1           0        1.523687    0.367440   -1.347396
      7          6           0        3.057407    1.560959   -0.373469
      8          1           0        2.804371    2.580662   -0.628980
      9         16           0        4.448467    1.166224    0.611600
     10          7           0        2.973569   -0.765687   -0.257037
     11          8           0        1.859629   -2.324129    4.027913
     12          1           0        2.088851   -1.496702    4.467407
     13          6           0        4.231862   -0.688140    3.857726
     14          1           0        5.234527   -0.287042    3.692583
     15          1           0        3.532535    0.147107    3.710990
     16          1           0        4.175124   -0.996666    4.910063
     17          6           0        3.411262   -3.992762    1.158933
     18          6           0        2.479459   -3.653526    2.168376
     19          6           0        4.574900   -3.251345    1.020598
     20          1           0        5.285756   -3.496089    0.238023
     21          6           0        1.196381   -4.428220    2.323085
     22          1           0        0.545823   -3.978302    3.072057
     23          1           0        0.650632   -4.474033    1.373918
     24          1           0        1.394255   -5.464936    2.623978
     25          6           0        3.131079   -5.151480    0.234253
     26          1           0        2.939568   -6.077787    0.787946
     27          1           0        2.243769   -4.958673   -0.380325
     28          1           0        3.971176   -5.328198   -0.441821
     29          1           0        5.786192   -1.647535    1.812530
 ---------------------------------------------------------------------
                    Distance matrix (angstroms):
                    1          2          3          4          5
     1  C    0.000000
     2  C    1.416881   0.000000
     3  C    2.246012   2.805823   0.000000
     4  C    2.409502   1.397507   3.541891   0.000000
     5  C    4.323544   4.552789   2.207051   4.829998   0.000000
     6  H    5.200630   5.376753   3.203629   5.430792   1.083934
     7  C    4.630394   4.810662   2.452758   5.374742   1.362680
     8  H    5.667536   5.776092   3.518272   6.333170   2.203756
     9  S    3.519899   3.816434   1.769468   4.769309   2.550864
    10  N    3.089070   3.488725   1.278639   3.767448   1.389122
    11  O    3.682323   2.413703   4.565108   1.373469   5.520635
    12  H    3.837555   2.441203   4.581767   1.923107   5.550393
    13  C    2.545924   1.506759   3.438568   2.528254   5.058851
    14  H    2.645414   2.154961   3.489003   3.429000   5.294029
    15  H    3.207066   2.171221   3.391314   2.913280   4.590396
    16  H    3.337472   2.171031   4.507130   2.826803   6.077399
    17  C    2.432860   2.838060   3.579963   2.432516   4.898095
    18  C    2.809599   2.456446   3.886695   1.409011   4.996927
    19  C    1.413214   2.452526   2.825223   2.784374   4.601405
    20  H    2.160466   3.428209   3.214438   3.869455   4.946604
    21  C    4.315428   3.828703   5.168472   2.530014   5.854596
    22  H    4.813042   4.024212   5.561399   2.629044   6.104993
    23  H    4.800084   4.497875   5.269303   3.293587   5.607978
    24  H    4.846478   4.449714   5.999318   3.221178   6.846715
    25  C    3.816621   4.346704   4.699107   3.817631   5.694048
    26  H    4.501678   4.856361   5.652414   4.158435   6.688182
    27  H    4.419738   4.854159   4.831178   4.194963   5.386968
    28  H    4.021887   4.849934   4.863773   4.589639   5.956218
    29  H    1.085925   2.154938   2.494071   3.383333   4.700157
                    6          7          8          9         10
     6  H    0.000000
     7  C    2.173780   0.000000
     8  H    2.656055   1.081253   0.000000
     9  S    3.609717   1.749636   2.498545   0.000000
    10  N    2.138929   2.331065   3.371205   2.581111   0.000000
    11  O    6.020908   5.991722   6.829068   5.527733   4.693655
    12  H    6.132403   5.807019   6.565823   5.246543   4.861839
    13  C    5.961691   4.933640   5.731783   3.744718   4.303555
    14  H    6.292858   4.968675   5.727590   3.496044   4.576082
    15  H    5.447136   4.348279   5.028694   3.388768   4.109851
    16  H    6.931572   5.975487   6.734778   4.819709   5.309991
    17  C    5.371776   5.772112   6.839214   5.290605   3.551135
    18  C    5.426077   5.829738   6.840751   5.434200   3.803471
    19  C    5.292721   5.234928   6.314126   4.438263   3.221041
    20  H    5.620816   5.559964   6.620866   4.751608   3.611979
    21  C    6.047968   6.826792   7.773336   6.693508   4.819707
    22  H    6.274811   6.990216   7.862489   6.910183   5.224721
    23  H    5.622067   6.728080   7.643227   6.842308   4.669891
    24  H    7.057278   7.817542   8.792145   7.572989   5.733884
    25  C    5.961862   6.740296   7.787036   6.464618   4.416034
    26  H    6.935802   7.727432   8.774662   7.401592   5.414014
    27  H    5.460881   6.570210   7.564237   6.584753   4.257810
    28  H    6.265026   6.949829   7.996657   6.596591   4.673957
    29  H    5.675756   4.745449   5.721003   3.339009   3.601612
                   11         12         13         14         15
    11  O    0.000000
    12  H    0.964538   0.000000
    13  C    2.886679   2.370228   0.000000
    14  H    3.956274   3.458165   1.092469   0.000000
    15  H    3.001010   2.314843   1.099193   1.756587   0.000000
    16  H    2.811026   2.190551   1.098099   1.762997   1.777333
    17  C    3.663734   4.350298   4.344812   4.845207   4.864794
    18  C    2.368409   3.176477   3.836448   4.609427   4.234789
    19  C    4.156485   4.597794   3.838879   4.044960   4.458050
    20  H    5.241670   5.666167   4.700800   4.715357   5.329931
    21  C    2.788106   3.740110   5.055439   5.944031   5.321420
    22  H    2.318628   3.238253   5.002932   5.999533   5.133000
    23  H    3.623183   4.527986   5.772998   6.627156   5.926400
    24  H    3.471639   4.430302   5.691391   6.534538   6.103185
    25  C    4.899220   5.688869   5.853434   6.328293   6.350110
    26  H    5.074801   5.937044   6.335761   6.872880   6.902543
    27  H    5.149849   5.959006   6.336485   6.881667   6.668491
    28  H    5.784598   6.505692   6.331208   6.640979   6.886015
    29  H    4.558903   4.554278   2.742117   2.385345   3.450197
                   16         17         18         19         20
    16  H    0.000000
    17  C    4.861178   0.000000
    18  C    4.177443   1.415032   0.000000
    19  C    4.513462   1.386683   2.422812   0.000000
    20  H    5.413740   2.146738   3.409744   1.085191   0.000000
    21  C    5.228856   2.539798   1.506777   3.807348   4.683945
    22  H    5.043833   3.445431   2.158950   4.579346   5.543576
    23  H    6.084279   2.810502   2.156155   4.125492   4.871448
    24  H    5.738018   2.895164   2.160196   4.193723   4.971209
    25  C    6.341586   1.508696   2.531661   2.512662   2.717162
    26  H    6.658547   2.169667   2.827425   3.273715   3.531596
    27  H    6.885916   2.159940   2.873123   3.211188   3.431500
    28  H    6.888137   2.158542   3.441348   2.610837   2.355192
    29  H    3.551602   3.401113   3.883955   2.160230   2.479247
                   21         22         23         24         25
    21  C    0.000000
    22  H    1.089316   0.000000
    23  H    1.095837   1.772120   0.000000
    24  H    1.097484   1.769376   1.759976   0.000000
    25  C    2.937580   4.014103   2.812541   2.970790   0.000000
    26  H    2.848934   3.918547   2.855629   2.476811   1.096036
    27  H    2.947342   3.970275   2.418745   3.162880   1.096449
    28  H    4.019223   5.089459   3.879757   4.007286   1.092734
    29  H    5.390663   5.871997   5.878389   5.875381   4.670998
                   26         27         28         29
    26  H    0.000000
    27  H    1.761081   0.000000
    28  H    1.771559   1.767559   0.000000
    29  H    5.364716   5.321749   4.682271   0.000000
 Symmetry turned off by external request.
 Stoichiometry    C12H14NOS(2)
 Framework group  C1[X(C12H14NOS)]
 Deg. of freedom    81
 Full point group                 C1      NOp   1
 Rotational constants (GHZ):           0.8139940           0.3809971           0.3324637
 Standard basis: 6-31G(d,p) (6D, 7F)
   299 basis functions,   542 primitive gaussians,   299 cartesian basis functions
    59 alpha electrons       58 beta electrons
       nuclear repulsion energy      1077.2395588504 Hartrees.
 NAtoms=   29 NActive=   29 NUniq=   29 SFac= 1.00D+00 NAtFMM=   60 NAOKFM=F Big=F
 Integral buffers will be    131072 words long.
 Raffenetti 2 integral format.
 Two-electron integral symmetry is turned off.
 Nuclear repulsion after empirical dispersion term =     1077.2115276751 Hartrees.
 One-electron integrals computed using PRISM.
 NBasis=   299 RedAO= T EigKep=  4.02D-04  NBF=   299
 NBsUse=   299 1.00D-06 EigRej= -1.00D+00 NBFU=   299
 Initial guess from the checkpoint file:  "/scratch/jcuzick/job_48780647/Gau-2329488.chk"
 B after Tr=    -0.001114   -0.012498   -0.005753
         Rot=    1.000000    0.000874   -0.000330   -0.000265 Ang=   0.11 deg.
 Initial guess <Sx>= 0.0000 <Sy>= 0.0000 <Sz>= 0.5000 <S**2>= 0.7756 S= 0.5127
 ExpMin= 1.17D-01 ExpMax= 2.19D+04 ExpMxC= 3.30D+03 IAcc=3 IRadAn=         5 AccDes= 0.00D+00
 Harris functional with IExCor=  402 and IRadAn=       5 diagonalized for initial guess.
 HarFok:  IExCor=  402 AccDes= 0.00D+00 IRadAn=         5 IDoV= 1 UseB2=F ITyADJ=14
 ICtDFT=  3500011 ScaDFX=  1.000000  1.000000  1.000000  1.000000
 FoFCou: FMM=F IPFlag=           0 FMFlag=      100000 FMFlg1=           0
         NFxFlg=           0 DoJE=T BraDBF=F KetDBF=T FulRan=T
         wScrn=  0.000000 ICntrl=       500 IOpCl=  0 I1Cent=   200000004 NGrid=           0
         NMat0=    1 NMatS0=      1 NMatT0=    0 NMatD0=    1 NMtDS0=    0 NMtDT0=    0
 Symmetry not used in FoFCou.
 Requested convergence on RMS density matrix=1.00D-08 within 128 cycles.
 Requested convergence on MAX density matrix=1.00D-06.
 Requested convergence on             energy=1.00D-06.
 No special actions if energy rises.
 Integral accuracy reduced to 1.0D-05 until final iterations.
 Initial convergence to 1.0D-05 achieved.  Increase integral accuracy.
 SCF Done:  E(UB3LYP) =  -993.824895138     A.U. after   15 cycles
            NFock= 15  Conv=0.70D-08     -V/T= 2.0070
 <Sx>= 0.0000 <Sy>= 0.0000 <Sz>= 0.5000 <S**2>= 0.7752 S= 0.5125
 <L.S>= 0.000000000000E+00
 Annihilation of the first spin contaminant:
 S**2 before annihilation     0.7752,   after     0.7505
 Calling FoFJK, ICntrl=      2127 FMM=F ISym2X=0 I1Cent= 0 IOpClX= 1 NMat=1 NMatS=1 NMatT=0.
 -------------------------------------------------------------------
 Center     Atomic                   Forces (Hartrees/Bohr)
 Number     Number              X              Y              Z
 -------------------------------------------------------------------
      1        6           0.000013099    0.000121269   -0.000227951
      2        6          -0.000115810    0.000058668    0.000076951
      3        6          -0.000313215    0.000035178    0.000046258
      4        6           0.000043057    0.000036738    0.000000018
      5        6           0.000009657   -0.000074585    0.000001118
      6        1          -0.000000848   -0.000007073    0.000005255
      7        6           0.000041889    0.000009104    0.000041659
      8        1          -0.000000542    0.000001693    0.000016407
      9       16           0.000125110   -0.000019861    0.000083177
     10        7           0.000058011   -0.000088996   -0.000059981
     11        8          -0.000006034    0.000012363    0.000032640
     12        1          -0.000007189    0.000005157   -0.000006063
     13        6           0.000064068    0.000003736   -0.000008257
     14        1          -0.000017506   -0.000006646   -0.000000232
     15        1          -0.000013338    0.000029485   -0.000021081
     16        1          -0.000013558    0.000000321   -0.000001280
     17        6           0.000084706   -0.000009063   -0.000018276
     18        6          -0.000037078    0.000000930   -0.000004687
     19        6           0.000016944   -0.000052827   -0.000001891
     20        1          -0.000008485    0.000003104   -0.000008105
     21        6          -0.000002227    0.000006376    0.000001769
     22        1           0.000006489   -0.000007762    0.000006239
     23        1          -0.000002101    0.000006423   -0.000001929
     24        1           0.000001641   -0.000006491   -0.000012960
     25        6           0.000002215    0.000003697    0.000005722
     26        1          -0.000000980   -0.000000072    0.000003085
     27        1           0.000003811    0.000015213    0.000003991
     28        1          -0.000002920    0.000002874   -0.000000675
     29        1           0.000071135   -0.000078953    0.000049078
 -------------------------------------------------------------------
 Cartesian Forces:  Max     0.000313215 RMS     0.000056327

 GradGradGradGradGradGradGradGradGradGradGradGradGradGradGradGradGradGrad
 Berny optimization.
 FormGI is forming the generalized inverse of G from B-inverse, IUseBI=4.
 Internal  Forces:  Max     0.000267279 RMS     0.000047078
 Search for a saddle point.
 Step number  10 out of a maximum of  157
 All quantities printed in internal units (Hartrees-Bohrs-Radians)
 Swapping is turned off.
 Update second derivatives using D2CorX and points    2    4    7    8    9
                                                     10
 ITU=  0  0  0  0  0  0  0  0  0  0
     Eigenvalues ---   -0.02422   0.00050   0.00097   0.00098   0.00248
     Eigenvalues ---    0.00295   0.00369   0.00962   0.01305   0.01432
     Eigenvalues ---    0.01468   0.01522   0.01710   0.01807   0.01928
     Eigenvalues ---    0.02551   0.03049   0.03461   0.03863   0.03917
     Eigenvalues ---    0.05131   0.05451   0.05767   0.05822   0.05861
     Eigenvalues ---    0.05915   0.06017   0.06072   0.06622   0.07275
     Eigenvalues ---    0.09208   0.11201   0.11943   0.12078   0.12192
     Eigenvalues ---    0.12223   0.12484   0.14476   0.14511   0.14590
     Eigenvalues ---    0.14704   0.14882   0.15067   0.15812   0.16953
     Eigenvalues ---    0.18981   0.19076   0.19339   0.20138   0.20541
     Eigenvalues ---    0.22137   0.23219   0.25026   0.27186   0.30128
     Eigenvalues ---    0.31348   0.32198   0.32558   0.32938   0.33206
     Eigenvalues ---    0.33464   0.33676   0.33957   0.34590   0.34622
     Eigenvalues ---    0.35103   0.35252   0.36056   0.36576   0.37031
     Eigenvalues ---    0.37379   0.38471   0.39700   0.41126   0.42938
     Eigenvalues ---    0.45266   0.48419   0.48614   0.51406   0.53558
     Eigenvalues ---    0.58261
 Eigenvectors required to have negative eigenvalues:
                          R2        D18       D6        D17       D5
   1                    0.89986   0.16083  -0.15319   0.14462  -0.14308
                          D13       D3        D4        D14       A1
   1                   -0.10749   0.10703   0.09692  -0.09128  -0.08899
 RFO step:  Lambda0=8.305755719D-07 Lambda=-8.35785596D-06.
 Linear search not attempted -- option 19 set.
 Iteration  1 RMS(Cart)=  0.01579808 RMS(Int)=  0.00018561
 Iteration  2 RMS(Cart)=  0.00025248 RMS(Int)=  0.00000351
 Iteration  3 RMS(Cart)=  0.00000006 RMS(Int)=  0.00000351
 Variable       Old X    -DE/DX   Delta X   Delta X   Delta X     New X
                                 (Linear)    (Quad)   (Total)
    R1        2.67752   0.00008   0.00000   0.00039   0.00039   2.67791
    R2        4.24435  -0.00016   0.00000   0.00329   0.00329   4.24764
    R3        2.67059  -0.00002   0.00000  -0.00061  -0.00061   2.66998
    R4        2.05210   0.00003   0.00000   0.00003   0.00003   2.05213
    R5        2.64091  -0.00005   0.00000   0.00011   0.00011   2.64101
    R6        2.84736   0.00001   0.00000  -0.00008  -0.00008   2.84729
    R7        3.34381  -0.00003   0.00000  -0.00023  -0.00023   3.34358
    R8        2.41628  -0.00007   0.00000  -0.00033  -0.00032   2.41595
    R9        2.59548   0.00003   0.00000   0.00033   0.00033   2.59581
   R10        2.66264   0.00005   0.00000  -0.00001  -0.00001   2.66264
   R11        2.04834  -0.00000   0.00000  -0.00001  -0.00001   2.04833
   R12        2.57509   0.00009   0.00000   0.00010   0.00010   2.57519
   R13        2.62506  -0.00005   0.00000   0.00030   0.00030   2.62536
   R14        2.04327  -0.00000   0.00000  -0.00000  -0.00000   2.04327
   R15        3.30633  -0.00002   0.00000   0.00014   0.00014   3.30647
   R16        1.82271  -0.00000   0.00000  -0.00002  -0.00002   1.82270
   R17        2.06447  -0.00002   0.00000   0.00009   0.00009   2.06456
   R18        2.07717   0.00003   0.00000   0.00002   0.00002   2.07719
   R19        2.07511  -0.00000   0.00000  -0.00021  -0.00021   2.07490
   R20        2.67402   0.00006   0.00000   0.00002   0.00002   2.67404
   R21        2.62045  -0.00006   0.00000   0.00004   0.00004   2.62049
   R22        2.85102  -0.00003   0.00000  -0.00010  -0.00010   2.85092
   R23        2.84740  -0.00000   0.00000   0.00004   0.00004   2.84744
   R24        2.05071  -0.00000   0.00000  -0.00003  -0.00003   2.05068
   R25        2.05851  -0.00000   0.00000  -0.00003  -0.00003   2.05848
   R26        2.07083   0.00000   0.00000   0.00011   0.00011   2.07094
   R27        2.07394   0.00000   0.00000  -0.00009  -0.00009   2.07385
   R28        2.07121   0.00000   0.00000   0.00000   0.00000   2.07121
   R29        2.07199  -0.00000   0.00000  -0.00002  -0.00002   2.07197
   R30        2.06497  -0.00000   0.00000  -0.00002  -0.00002   2.06494
    A1        1.70007  -0.00018   0.00000  -0.00122  -0.00122   1.69886
    A2        2.09665   0.00006   0.00000   0.00021   0.00021   2.09686
    A3        2.06402  -0.00002   0.00000  -0.00000  -0.00000   2.06401
    A4        1.71944   0.00009   0.00000   0.00061   0.00061   1.72005
    A5        1.57010   0.00009   0.00000   0.00121   0.00121   1.57131
    A6        2.07775  -0.00004   0.00000  -0.00040  -0.00040   2.07735
    A7        2.05547  -0.00001   0.00000  -0.00020  -0.00020   2.05526
    A8        2.11315  -0.00004   0.00000  -0.00040  -0.00040   2.11275
    A9        2.11176   0.00006   0.00000   0.00058   0.00058   2.11234
   A10        2.12960  -0.00027   0.00000  -0.00229  -0.00232   2.12729
   A11        2.09259   0.00008   0.00000   0.00457   0.00456   2.09715
   A12        2.00319   0.00019   0.00000   0.00104   0.00103   2.00422
   A13        2.11470   0.00000   0.00000   0.00004   0.00004   2.11474
   A14        2.13196  -0.00003   0.00000  -0.00023  -0.00023   2.13173
   A15        2.03638   0.00003   0.00000   0.00018   0.00018   2.03656
   A16        2.18129   0.00000   0.00000   0.00002   0.00002   2.18131
   A17        2.08092  -0.00001   0.00000  -0.00012  -0.00012   2.08080
   A18        2.02097   0.00001   0.00000   0.00010   0.00010   2.02107
   A19        2.24106  -0.00001   0.00000  -0.00011  -0.00011   2.24095
   A20        1.91048   0.00004   0.00000   0.00020   0.00020   1.91069
   A21        2.13161  -0.00003   0.00000  -0.00009  -0.00009   2.13152
   A22        1.54233  -0.00011   0.00000  -0.00053  -0.00052   1.54181
   A23        1.94742  -0.00012   0.00000  -0.00077  -0.00077   1.94665
   A24        1.91000   0.00000   0.00000  -0.00019  -0.00019   1.90980
   A25        1.93739  -0.00000   0.00000  -0.00006  -0.00006   1.93733
   A26        1.95307  -0.00001   0.00000  -0.00029  -0.00029   1.95279
   A27        1.95399   0.00000   0.00000  -0.00017  -0.00017   1.95382
   A28        1.85955  -0.00000   0.00000   0.00044   0.00044   1.85999
   A29        1.87072   0.00001   0.00000  -0.00033  -0.00033   1.87038
   A30        1.88447   0.00001   0.00000   0.00045   0.00045   1.88492
   A31        2.08929   0.00002   0.00000   0.00002   0.00002   2.08931
   A32        2.09331  -0.00001   0.00000   0.00001   0.00001   2.09331
   A33        2.10057  -0.00001   0.00000  -0.00003  -0.00004   2.10054
   A34        2.07588   0.00002   0.00000   0.00016   0.00016   2.07603
   A35        2.10045   0.00001   0.00000   0.00007   0.00007   2.10052
   A36        2.10683  -0.00003   0.00000  -0.00022  -0.00022   2.10661
   A37        2.10594  -0.00004   0.00000  -0.00013  -0.00013   2.10581
   A38        2.07910   0.00003   0.00000   0.00016   0.00016   2.07926
   A39        2.09560   0.00002   0.00000  -0.00009  -0.00009   2.09551
   A40        1.94636   0.00000   0.00000   0.00006   0.00006   1.94642
   A41        1.93547  -0.00001   0.00000  -0.00014  -0.00014   1.93533
   A42        1.93938  -0.00000   0.00000   0.00001   0.00001   1.93939
   A43        1.89165   0.00000   0.00000  -0.00005  -0.00005   1.89160
   A44        1.88528   0.00000   0.00000   0.00023   0.00023   1.88552
   A45        1.86270  -0.00000   0.00000  -0.00012  -0.00012   1.86258
   A46        1.95187   0.00000   0.00000   0.00015   0.00015   1.95202
   A47        1.93775  -0.00002   0.00000  -0.00028  -0.00028   1.93747
   A48        1.93974   0.00000   0.00000  -0.00003  -0.00003   1.93971
   A49        1.86541   0.00001   0.00000   0.00012   0.00012   1.86554
   A50        1.88621   0.00000   0.00000   0.00007   0.00007   1.88628
   A51        1.87948   0.00000   0.00000  -0.00002  -0.00002   1.87946
    D1        1.66117   0.00002   0.00000  -0.00183  -0.00183   1.65934
    D2       -1.40065   0.00002   0.00000  -0.00160  -0.00160  -1.40225
    D3       -0.16036   0.00001   0.00000  -0.00185  -0.00185  -0.16221
    D4        3.06101   0.00001   0.00000  -0.00162  -0.00162   3.05939
    D5       -2.98208   0.00002   0.00000  -0.00111  -0.00111  -2.98319
    D6        0.23928   0.00002   0.00000  -0.00088  -0.00088   0.23841
    D7        1.33247  -0.00001   0.00000  -0.02504  -0.02503   1.30744
    D8       -1.43165  -0.00006   0.00000  -0.03570  -0.03570  -1.46735
    D9       -2.81980   0.00002   0.00000  -0.02498  -0.02498  -2.84478
   D10        0.69927  -0.00002   0.00000  -0.03565  -0.03565   0.66362
   D11       -0.73597   0.00000   0.00000  -0.02513  -0.02512  -0.76110
   D12        2.78310  -0.00004   0.00000  -0.03579  -0.03579   2.74731
   D13        0.15638  -0.00002   0.00000   0.00062   0.00062   0.15700
   D14       -3.06170  -0.00004   0.00000  -0.00026  -0.00026  -3.06196
   D15       -1.65434   0.00012   0.00000   0.00162   0.00162  -1.65272
   D16        1.41077   0.00011   0.00000   0.00075   0.00075   1.41152
   D17        2.97560  -0.00003   0.00000  -0.00005  -0.00005   2.97555
   D18       -0.24247  -0.00004   0.00000  -0.00093  -0.00093  -0.24340
   D19       -3.08697   0.00000   0.00000   0.00150   0.00150  -3.08546
   D20        0.07394   0.00000   0.00000   0.00208   0.00208   0.07602
   D21       -0.02508  -0.00001   0.00000   0.00123   0.00123  -0.02386
   D22        3.13582  -0.00001   0.00000   0.00180   0.00180   3.13762
   D23       -0.19217  -0.00001   0.00000  -0.02428  -0.02428  -0.21645
   D24        1.88284  -0.00002   0.00000  -0.02395  -0.02395   1.85889
   D25       -2.28195  -0.00002   0.00000  -0.02370  -0.02370  -2.30565
   D26        3.03177   0.00000   0.00000  -0.02401  -0.02401   3.00777
   D27       -1.17640  -0.00001   0.00000  -0.02368  -0.02368  -1.20008
   D28        0.94200  -0.00001   0.00000  -0.02342  -0.02342   0.91857
   D29       -2.80366  -0.00001   0.00000  -0.00967  -0.00965  -2.81331
   D30       -0.02168   0.00002   0.00000   0.00125   0.00125  -0.02043
   D31        2.81880  -0.00006   0.00000   0.00769   0.00772   2.82651
   D32        0.02858  -0.00001   0.00000  -0.00146  -0.00147   0.02711
   D33        0.17394   0.00001   0.00000   0.01127   0.01127   0.18522
   D34       -2.98595   0.00001   0.00000   0.01073   0.01073  -2.97522
   D35        0.01964  -0.00001   0.00000  -0.00111  -0.00111   0.01854
   D36       -3.13049  -0.00000   0.00000  -0.00043  -0.00043  -3.13091
   D37       -3.10346  -0.00001   0.00000  -0.00056  -0.00056  -3.10401
   D38        0.02960  -0.00000   0.00000   0.00012   0.00012   0.02972
   D39       -0.00562  -0.00000   0.00000   0.00053   0.00053  -0.00509
   D40       -3.13842   0.00000   0.00000  -0.00018  -0.00018  -3.13860
   D41        3.13872   0.00001   0.00000   0.00072   0.00072   3.13944
   D42        0.00592   0.00002   0.00000   0.00002   0.00001   0.00593
   D43        3.12163   0.00001   0.00000   0.00114   0.00114   3.12277
   D44       -0.02254  -0.00001   0.00000   0.00096   0.00096  -0.02158
   D45        0.00782  -0.00002   0.00000  -0.00066  -0.00066   0.00717
   D46       -3.12564  -0.00001   0.00000  -0.00131  -0.00131  -3.12695
   D47       -0.02778  -0.00000   0.00000  -0.00021  -0.00021  -0.02799
   D48        3.12238  -0.00001   0.00000  -0.00089  -0.00089   3.12149
   D49        3.12053   0.00001   0.00000   0.00082   0.00082   3.12135
   D50       -0.01249   0.00001   0.00000   0.00014   0.00014  -0.01236
   D51       -0.05955   0.00002   0.00000   0.00043   0.00043  -0.05912
   D52       -3.12394   0.00003   0.00000   0.00130   0.00130  -3.12264
   D53        3.07529   0.00000   0.00000  -0.00060  -0.00060   3.07469
   D54        0.01090   0.00002   0.00000   0.00027   0.00027   0.01117
   D55       -0.96440  -0.00001   0.00000  -0.00120  -0.00120  -0.96560
   D56        1.11748  -0.00001   0.00000  -0.00114  -0.00114   1.11634
   D57       -3.07412  -0.00001   0.00000  -0.00137  -0.00137  -3.07549
   D58        2.18395   0.00001   0.00000  -0.00016  -0.00016   2.18379
   D59       -2.01735   0.00001   0.00000  -0.00010  -0.00010  -2.01745
   D60        0.07424   0.00001   0.00000  -0.00034  -0.00034   0.07390
   D61        0.11337  -0.00001   0.00000  -0.00674  -0.00674   0.10662
   D62        2.22328  -0.00001   0.00000  -0.00687  -0.00687   2.21642
   D63       -1.99113  -0.00002   0.00000  -0.00709  -0.00709  -1.99822
   D64       -3.03691  -0.00001   0.00000  -0.00605  -0.00605  -3.04296
   D65       -0.92700  -0.00000   0.00000  -0.00617  -0.00617  -0.93317
   D66        1.14177  -0.00001   0.00000  -0.00640  -0.00640   1.13538
         Item               Value     Threshold  Converged?
 Maximum Force            0.000267     0.000450     YES
 RMS     Force            0.000047     0.000300     YES
 Maximum Displacement     0.084705     0.001800     NO 
 RMS     Displacement     0.015770     0.001200     NO 
 Predicted change in Energy=-3.803958D-06
 GradGradGradGradGradGradGradGradGradGradGradGradGradGradGradGradGradGrad

                          Input orientation:                          
 ---------------------------------------------------------------------
 Center     Atomic      Atomic             Coordinates (Angstroms)
 Number     Number       Type             X           Y           Z
 ---------------------------------------------------------------------
      1          6           0        4.807678   -2.116453    1.830248
      2          6           0        3.949976   -1.833138    2.922137
      3          6           0        4.024646   -0.539152    0.433331
      4          6           0        2.777057   -2.583791    3.040313
      5          6           0        2.425924    0.407416   -0.756887
      6          1           0        1.549267    0.355176   -1.392220
      7          6           0        3.042411    1.559298   -0.369389
      8          1           0        2.780535    2.578105   -0.619512
      9         16           0        4.415359    1.173564    0.644371
     10          7           0        2.988975   -0.769688   -0.279915
     11          8           0        1.864047   -2.324362    4.033289
     12          1           0        2.089228   -1.492672    4.466765
     13          6           0        4.239785   -0.691982    3.862337
     14          1           0        5.251544   -0.308123    3.712026
     15          1           0        3.556550    0.154140    3.702610
     16          1           0        4.161891   -0.997048    4.914215
     17          6           0        3.410004   -3.990991    1.159654
     18          6           0        2.480291   -3.652428    2.171263
     19          6           0        4.573648   -3.249844    1.019742
     20          1           0        5.282224   -3.493382    0.234751
     21          6           0        1.196792   -4.426314    2.326744
     22          1           0        0.550401   -3.980630    3.081809
     23          1           0        0.646531   -4.464671    1.379785
     24          1           0        1.394538   -5.465398    2.619266
     25          6           0        3.127003   -5.147824    0.233560
     26          1           0        2.936611   -6.075192    0.785861
     27          1           0        2.238156   -4.953256   -0.378218
     28          1           0        3.965191   -5.323410   -0.445152
     29          1           0        5.787234   -1.648090    1.810899
 ---------------------------------------------------------------------
                    Distance matrix (angstroms):
                    1          2          3          4          5
     1  C    0.000000
     2  C    1.417089   0.000000
     3  C    2.247753   2.806088   0.000000
     4  C    2.409582   1.397564   3.540252   0.000000
     5  C    4.328502   4.569248   2.206473   4.846580   0.000000
     6  H    5.206773   5.400536   3.203117   5.458236   1.083930
     7  C    4.633111   4.813153   2.452068   5.372306   1.362734
     8  H    5.670053   5.776671   3.517610   6.327677   2.203749
     9  S    3.519151   3.800665   1.769347   4.747872   2.551148
    10  N    3.094227   3.508217   1.278468   3.789432   1.389282
    11  O    3.682605   2.413930   4.562331   1.373642   5.542932
    12  H    3.838007   2.442166   4.574236   1.923126   5.568683
    13  C    2.545782   1.506719   3.439146   2.528684   5.082913
    14  H    2.647293   2.154919   3.508346   3.428258   5.335476
    15  H    3.197914   2.170990   3.374604   2.922758   4.607556
    16  H    3.343794   2.170790   4.506310   2.819047   6.094875
    17  C    2.432505   2.838000   3.580575   2.432634   4.897706
    18  C    2.809313   2.456339   3.885605   1.409007   5.005932
    19  C    1.412893   2.452576   2.827213   2.784613   4.598335
    20  H    2.160264   3.428314   3.216895   3.869676   4.935385
    21  C    4.315144   3.828718   5.166411   2.530081   5.863829
    22  H    4.813103   4.024217   5.561347   2.628854   6.124387
    23  H    4.799186   4.496283   5.264707   3.291535   5.609709
    24  H    4.846391   4.451439   5.996973   3.223708   6.852161
    25  C    3.816188   4.346593   4.699525   3.817668   5.686228
    26  H    4.501472   4.856502   5.652950   4.159074   6.683194
    27  H    4.418961   4.853638   4.830577   4.194178   5.377309
    28  H    4.021418   4.849831   4.864606   4.589732   5.942128
    29  H    1.085941   2.155135   2.496829   3.383513   4.702875
                    6          7          8          9         10
     6  H    0.000000
     7  C    2.173838   0.000000
     8  H    2.656033   1.081253   0.000000
     9  S    3.609978   1.749711   2.498557   0.000000
    10  N    2.138995   2.331317   3.371423   2.581686   0.000000
    11  O    6.059303   5.987899   6.820754   5.498131   4.720827
    12  H    6.167155   5.797540   6.551286   5.208685   4.885000
    13  C    5.995482   4.940595   5.736711   3.723761   4.327681
    14  H    6.340358   5.002548   5.761807   3.507864   4.611708
    15  H    5.479680   4.338201   5.015829   3.336107   4.127482
    16  H    6.958839   5.975334   6.731419   4.796600   5.329767
    17  C    5.372482   5.768778   6.834814   5.286670   3.553366
    18  C    5.442987   5.825203   6.833602   5.419049   3.818013
    19  C    5.287779   5.234713   6.314064   4.442128   3.217370
    20  H    5.602981   5.559795   6.622021   4.764412   3.597552
    21  C    6.067749   6.819311   7.762123   6.674443   4.835029
    22  H    6.309824   6.986536   7.854316   6.888013   5.249569
    23  H    5.632927   6.714764   7.625736   6.821627   4.679161
    24  H    7.070717   7.809859   8.781151   7.556546   5.744316
    25  C    5.951086   6.734701   7.780601   6.464408   4.410304
    26  H    6.929530   7.722127   8.768066   7.399404   5.411746
    27  H    5.448138   6.562032   7.554720   6.582083   4.251544
    28  H    6.243393   6.944706   7.991730   6.603058   4.660116
    29  H    5.677447   4.751321   5.727814   3.347321   3.601853
                   11         12         13         14         15
    11  O    0.000000
    12  H    0.964529   0.000000
    13  C    2.887564   2.373044   0.000000
    14  H    3.955195   3.460207   1.092519   0.000000
    15  H    3.019419   2.334300   1.099202   1.756924   0.000000
    16  H    2.796047   2.177564   1.097989   1.762732   1.777543
    17  C    3.664070   4.350060   4.344708   4.844521   4.865204
    18  C    2.368682   3.175973   3.836638   4.608489   4.241853
    19  C    4.156912   4.598039   3.838550   4.044954   4.451896
    20  H    5.242083   5.666393   4.700415   4.715745   5.320565
    21  C    2.788499   3.739303   5.055996   5.943023   5.333107
    22  H    2.318232   3.236669   5.003597   5.998769   5.149626
    23  H    3.619993   4.521459   5.771285   6.627397   5.932718
    24  H    3.476493   4.436034   5.694397   6.532083   6.117772
    25  C    4.899483   5.688333   5.853276   6.327409   6.350562
    26  H    5.075915   5.938569   6.335765   6.868802   6.906253
    27  H    5.149022   5.955810   6.336188   6.883884   6.669094
    28  H    5.784940   6.505438   6.330876   6.640025   6.882912
    29  H    4.559359   4.555549   2.741739   2.386787   3.435484
                   16         17         18         19         20
    16  H    0.000000
    17  C    4.860633   0.000000
    18  C    4.171643   1.415042   0.000000
    19  C    4.517915   1.386701   2.422853   0.000000
    20  H    5.420721   2.146688   3.409722   1.085174   0.000000
    21  C    5.219836   2.539668   1.506800   3.807294   4.683754
    22  H    5.030142   3.445593   2.159001   4.579594   5.543762
    23  H    6.072426   2.812403   2.156120   4.126461   4.872798
    24  H    5.735083   2.892481   2.160191   4.192123   4.968789
    25  C    6.341014   1.508643   2.531628   2.512606   2.717013
    26  H    6.658241   2.169728   2.827960   3.273710   3.531482
    27  H    6.882019   2.159683   2.872392   3.210985   3.431227
    28  H    6.890494   2.158466   3.441328   2.610710   2.354962
    29  H    3.563168   3.400666   3.883697   2.159708   2.478786
                   21         22         23         24         25
    21  C    0.000000
    22  H    1.089302   0.000000
    23  H    1.095897   1.772124   0.000000
    24  H    1.097437   1.769477   1.759909   0.000000
    25  C    2.937296   4.014192   2.816606   2.965447   0.000000
    26  H    2.849577   3.918235   2.861991   2.472087   1.096037
    27  H    2.946001   3.970680   2.421272   3.155771   1.096439
    28  H    4.018983   5.089529   3.883469   4.002384   1.092722
    29  H    5.390434   5.871999   5.877569   5.875464   4.670435
                   26         27         28         29
    26  H    0.000000
    27  H    1.761153   0.000000
    28  H    1.771594   1.767525   0.000000
    29  H    5.364326   5.320931   4.681622   0.000000
 Symmetry turned off by external request.
 Stoichiometry    C12H14NOS(2)
 Framework group  C1[X(C12H14NOS)]
 Deg. of freedom    81
 Full point group                 C1      NOp   1
 Rotational constants (GHZ):           0.8118373           0.3821769           0.3324067
 Standard basis: 6-31G(d,p) (6D, 7F)
   299 basis functions,   542 primitive gaussians,   299 cartesian basis functions
    59 alpha electrons       58 beta electrons
       nuclear repulsion energy      1077.2852171378 Hartrees.
 NAtoms=   29 NActive=   29 NUniq=   29 SFac= 1.00D+00 NAtFMM=   60 NAOKFM=F Big=F
 Integral buffers will be    131072 words long.
 Raffenetti 2 integral format.
 Two-electron integral symmetry is turned off.
 Nuclear repulsion after empirical dispersion term =     1077.2571597462 Hartrees.
 One-electron integrals computed using PRISM.
 NBasis=   299 RedAO= T EigKep=  4.02D-04  NBF=   299
 NBsUse=   299 1.00D-06 EigRej= -1.00D+00 NBFU=   299
 Initial guess from the checkpoint file:  "/scratch/jcuzick/job_48780647/Gau-2329488.chk"
 B after Tr=    -0.012185   -0.009615    0.007770
         Rot=    0.999999   -0.000612    0.000214   -0.001145 Ang=  -0.15 deg.
 Initial guess <Sx>= 0.0000 <Sy>= 0.0000 <Sz>= 0.5000 <S**2>= 0.7753 S= 0.5125
 ExpMin= 1.17D-01 ExpMax= 2.19D+04 ExpMxC= 3.30D+03 IAcc=3 IRadAn=         5 AccDes= 0.00D+00
 Harris functional with IExCor=  402 and IRadAn=       5 diagonalized for initial guess.
 HarFok:  IExCor=  402 AccDes= 0.00D+00 IRadAn=         5 IDoV= 1 UseB2=F ITyADJ=14
 ICtDFT=  3500011 ScaDFX=  1.000000  1.000000  1.000000  1.000000
 FoFCou: FMM=F IPFlag=           0 FMFlag=      100000 FMFlg1=           0
         NFxFlg=           0 DoJE=T BraDBF=F KetDBF=T FulRan=T
         wScrn=  0.000000 ICntrl=       500 IOpCl=  0 I1Cent=   200000004 NGrid=           0
         NMat0=    1 NMatS0=      1 NMatT0=    0 NMatD0=    1 NMtDS0=    0 NMtDT0=    0
 Symmetry not used in FoFCou.
 Requested convergence on RMS density matrix=1.00D-08 within 128 cycles.
 Requested convergence on MAX density matrix=1.00D-06.
 Requested convergence on             energy=1.00D-06.
 No special actions if energy rises.
 Integral accuracy reduced to 1.0D-05 until final iterations.
 Initial convergence to 1.0D-05 achieved.  Increase integral accuracy.
 SCF Done:  E(UB3LYP) =  -993.824896967     A.U. after   13 cycles
            NFock= 13  Conv=0.59D-08     -V/T= 2.0070
 <Sx>= 0.0000 <Sy>= 0.0000 <Sz>= 0.5000 <S**2>= 0.7752 S= 0.5125
 <L.S>= 0.000000000000E+00
 Annihilation of the first spin contaminant:
 S**2 before annihilation     0.7752,   after     0.7505
 Calling FoFJK, ICntrl=      2127 FMM=F ISym2X=0 I1Cent= 0 IOpClX= 1 NMat=1 NMatS=1 NMatT=0.
 -------------------------------------------------------------------
 Center     Atomic                   Forces (Hartrees/Bohr)
 Number     Number              X              Y              Z
 -------------------------------------------------------------------
      1        6           0.000037314    0.000145670   -0.000028513
      2        6          -0.000064182    0.000022672    0.000021776
      3        6           0.000078451   -0.000125406    0.000048033
      4        6           0.000017867    0.000036560   -0.000009701
      5        6          -0.000009878    0.000023458    0.000028994
      6        1           0.000000074    0.000003192    0.000002087
      7        6          -0.000015426   -0.000025243   -0.000020933
      8        1           0.000004693    0.000000102   -0.000001112
      9       16          -0.000020106   -0.000044625    0.000025096
     10        7          -0.000006895    0.000026889   -0.000000333
     11        8           0.000005397    0.000013472   -0.000003960
     12        1           0.000006930   -0.000003616    0.000009314
     13        6          -0.000023427    0.000010323   -0.000012309
     14        1          -0.000007026    0.000014887   -0.000012557
     15        1          -0.000001197    0.000003885    0.000013733
     16        1           0.000020371   -0.000009955    0.000006075
     17        6           0.000041499    0.000008836   -0.000023458
     18        6          -0.000041589   -0.000012775    0.000022800
     19        6          -0.000053963   -0.000059865   -0.000094884
     20        1           0.000007940   -0.000007973    0.000002930
     21        6           0.000001526    0.000001047    0.000000260
     22        1           0.000002933   -0.000004438   -0.000000010
     23        1          -0.000002946    0.000000791   -0.000001919
     24        1          -0.000001192   -0.000006486   -0.000004796
     25        6          -0.000002005    0.000001993    0.000000804
     26        1          -0.000001822   -0.000000220    0.000000801
     27        1          -0.000003275   -0.000002388    0.000002171
     28        1          -0.000000493   -0.000001574   -0.000001099
     29        1           0.000030427   -0.000009213    0.000030707
 -------------------------------------------------------------------
 Cartesian Forces:  Max     0.000145670 RMS     0.000031435

 GradGradGradGradGradGradGradGradGradGradGradGradGradGradGradGradGradGrad
 Berny optimization.
 FormGI is forming the generalized inverse of G from B-inverse, IUseBI=4.
 Internal  Forces:  Max     0.000160856 RMS     0.000021123
 Search for a saddle point.
 Step number  11 out of a maximum of  157
 All quantities printed in internal units (Hartrees-Bohrs-Radians)
 Swapping is turned off.
 Update second derivatives using D2CorX and points    2    3    4    7    8
                                                      9   10   11
 ITU=  0  0  0  0  0  0  0  0  0  0  0
     Eigenvalues ---   -0.02255   0.00070   0.00112   0.00118   0.00246
     Eigenvalues ---    0.00294   0.00371   0.00956   0.01303   0.01434
     Eigenvalues ---    0.01468   0.01523   0.01710   0.01807   0.01928
     Eigenvalues ---    0.02551   0.03049   0.03472   0.03864   0.03916
     Eigenvalues ---    0.05132   0.05464   0.05766   0.05822   0.05861
     Eigenvalues ---    0.05916   0.06017   0.06072   0.06692   0.07367
     Eigenvalues ---    0.09208   0.11203   0.11943   0.12081   0.12193
     Eigenvalues ---    0.12228   0.12484   0.14477   0.14511   0.14592
     Eigenvalues ---    0.14704   0.14887   0.15072   0.15812   0.16953
     Eigenvalues ---    0.18982   0.19078   0.19339   0.20139   0.20545
     Eigenvalues ---    0.22148   0.23222   0.25029   0.27187   0.30128
     Eigenvalues ---    0.31349   0.32198   0.32559   0.32938   0.33206
     Eigenvalues ---    0.33464   0.33676   0.33957   0.34590   0.34622
     Eigenvalues ---    0.35103   0.35253   0.36056   0.36577   0.37032
     Eigenvalues ---    0.37379   0.38475   0.39706   0.41134   0.42939
     Eigenvalues ---    0.45272   0.48422   0.48616   0.51406   0.53558
     Eigenvalues ---    0.58262
 Eigenvectors required to have negative eigenvalues:
                          R2        D18       D6        D17       D5
   1                    0.89605   0.16238  -0.15239   0.14509  -0.14234
                          D3        D13       D4        D14       A1
   1                    0.11219  -0.11129   0.10215  -0.09400  -0.09396
 RFO step:  Lambda0=8.891757028D-07 Lambda=-3.50323869D-06.
 Linear search not attempted -- option 19 set.
 Iteration  1 RMS(Cart)=  0.00731818 RMS(Int)=  0.00001881
 Iteration  2 RMS(Cart)=  0.00003341 RMS(Int)=  0.00000333
 Iteration  3 RMS(Cart)=  0.00000000 RMS(Int)=  0.00000333
 Variable       Old X    -DE/DX   Delta X   Delta X   Delta X     New X
                                 (Linear)    (Quad)   (Total)
    R1        2.67791   0.00005   0.00000  -0.00024  -0.00024   2.67767
    R2        4.24764  -0.00016   0.00000   0.00211   0.00211   4.24975
    R3        2.66998   0.00009   0.00000   0.00007   0.00007   2.67005
    R4        2.05213   0.00002   0.00000   0.00003   0.00003   2.05216
    R5        2.64101  -0.00002   0.00000   0.00001   0.00001   2.64103
    R6        2.84729   0.00001   0.00000   0.00006   0.00006   2.84735
    R7        3.34358  -0.00004   0.00000  -0.00009  -0.00009   3.34349
    R8        2.41595   0.00001   0.00000   0.00000   0.00000   2.41596
    R9        2.59581  -0.00000   0.00000  -0.00012  -0.00012   2.59569
   R10        2.66264   0.00004   0.00000  -0.00005  -0.00005   2.66259
   R11        2.04833  -0.00000   0.00000  -0.00001  -0.00001   2.04833
   R12        2.57519  -0.00003   0.00000  -0.00007  -0.00007   2.57512
   R13        2.62536   0.00000   0.00000  -0.00007  -0.00007   2.62529
   R14        2.04327  -0.00000   0.00000  -0.00000  -0.00000   2.04327
   R15        3.30647   0.00001   0.00000   0.00006   0.00006   3.30653
   R16        1.82270   0.00000   0.00000   0.00001   0.00001   1.82270
   R17        2.06456  -0.00000   0.00000  -0.00007  -0.00007   2.06449
   R18        2.07719   0.00000   0.00000   0.00002   0.00002   2.07721
   R19        2.07490   0.00001   0.00000   0.00011   0.00011   2.07501
   R20        2.67404   0.00004   0.00000   0.00002   0.00002   2.67406
   R21        2.62049  -0.00002   0.00000   0.00001   0.00001   2.62049
   R22        2.85092   0.00000   0.00000   0.00000   0.00000   2.85092
   R23        2.84744   0.00000   0.00000  -0.00000  -0.00000   2.84743
   R24        2.05068   0.00000   0.00000   0.00001   0.00001   2.05069
   R25        2.05848  -0.00000   0.00000  -0.00001  -0.00001   2.05848
   R26        2.07094   0.00000   0.00000   0.00001   0.00001   2.07095
   R27        2.07385   0.00000   0.00000   0.00001   0.00001   2.07386
   R28        2.07121   0.00000   0.00000  -0.00000  -0.00000   2.07121
   R29        2.07197   0.00000   0.00000   0.00001   0.00001   2.07198
   R30        2.06494   0.00000   0.00000   0.00001   0.00001   2.06495
    A1        1.69886  -0.00004   0.00000  -0.00164  -0.00164   1.69722
    A2        2.09686   0.00000   0.00000   0.00013   0.00013   2.09698
    A3        2.06401  -0.00001   0.00000   0.00019   0.00019   2.06420
    A4        1.72005  -0.00001   0.00000  -0.00149  -0.00149   1.71856
    A5        1.57131   0.00004   0.00000   0.00097   0.00098   1.57228
    A6        2.07735   0.00001   0.00000   0.00039   0.00039   2.07774
    A7        2.05526  -0.00000   0.00000   0.00002   0.00002   2.05529
    A8        2.11275   0.00001   0.00000   0.00037   0.00037   2.11312
    A9        2.11234  -0.00001   0.00000  -0.00035  -0.00035   2.11199
   A10        2.12729  -0.00004   0.00000  -0.00124  -0.00126   2.12603
   A11        2.09715   0.00003   0.00000  -0.00208  -0.00211   2.09504
   A12        2.00422  -0.00000   0.00000  -0.00025  -0.00026   2.00396
   A13        2.11474  -0.00002   0.00000  -0.00011  -0.00011   2.11463
   A14        2.13173   0.00001   0.00000   0.00005   0.00005   2.13178
   A15        2.03656   0.00001   0.00000   0.00007   0.00007   2.03663
   A16        2.18131  -0.00000   0.00000   0.00002   0.00002   2.18133
   A17        2.08080   0.00001   0.00000   0.00005   0.00005   2.08085
   A18        2.02107  -0.00001   0.00000  -0.00006  -0.00007   2.02100
   A19        2.24095   0.00000   0.00000   0.00007   0.00007   2.24103
   A20        1.91069   0.00000   0.00000  -0.00008  -0.00008   1.91060
   A21        2.13152  -0.00000   0.00000   0.00001   0.00001   2.13152
   A22        1.54181   0.00000   0.00000   0.00013   0.00014   1.54195
   A23        1.94665   0.00000   0.00000   0.00023   0.00024   1.94689
   A24        1.90980   0.00000   0.00000   0.00010   0.00010   1.90991
   A25        1.93733  -0.00000   0.00000   0.00003   0.00003   1.93736
   A26        1.95279   0.00002   0.00000   0.00022   0.00022   1.95301
   A27        1.95382  -0.00001   0.00000  -0.00005  -0.00005   1.95376
   A28        1.85999  -0.00001   0.00000  -0.00028  -0.00028   1.85971
   A29        1.87038  -0.00000   0.00000   0.00021   0.00021   1.87059
   A30        1.88492  -0.00000   0.00000  -0.00014  -0.00014   1.88478
   A31        2.08931   0.00001   0.00000   0.00003   0.00003   2.08934
   A32        2.09331  -0.00001   0.00000  -0.00006  -0.00006   2.09326
   A33        2.10054   0.00000   0.00000   0.00002   0.00002   2.10056
   A34        2.07603   0.00000   0.00000  -0.00005  -0.00005   2.07599
   A35        2.10052   0.00002   0.00000   0.00008   0.00008   2.10060
   A36        2.10661  -0.00002   0.00000  -0.00003  -0.00003   2.10657
   A37        2.10581  -0.00002   0.00000  -0.00009  -0.00009   2.10572
   A38        2.07926   0.00001   0.00000   0.00004   0.00004   2.07930
   A39        2.09551   0.00001   0.00000   0.00006   0.00006   2.09557
   A40        1.94642   0.00000   0.00000   0.00004   0.00004   1.94645
   A41        1.93533  -0.00000   0.00000  -0.00006  -0.00006   1.93527
   A42        1.93939   0.00000   0.00000   0.00003   0.00003   1.93942
   A43        1.89160  -0.00000   0.00000  -0.00001  -0.00001   1.89159
   A44        1.88552  -0.00000   0.00000   0.00001   0.00001   1.88552
   A45        1.86258  -0.00000   0.00000  -0.00001  -0.00001   1.86257
   A46        1.95202  -0.00000   0.00000   0.00001   0.00001   1.95204
   A47        1.93747   0.00000   0.00000  -0.00002  -0.00002   1.93745
   A48        1.93971   0.00000   0.00000   0.00003   0.00003   1.93974
   A49        1.86554  -0.00000   0.00000  -0.00002  -0.00002   1.86552
   A50        1.88628  -0.00000   0.00000  -0.00002  -0.00002   1.88626
   A51        1.87946   0.00000   0.00000   0.00002   0.00002   1.87948
    D1        1.65934  -0.00001   0.00000  -0.00169  -0.00169   1.65765
    D2       -1.40225  -0.00001   0.00000  -0.00232  -0.00232  -1.40457
    D3       -0.16221   0.00002   0.00000   0.00107   0.00107  -0.16113
    D4        3.05939   0.00002   0.00000   0.00044   0.00044   3.05983
    D5       -2.98319   0.00001   0.00000  -0.00144  -0.00144  -2.98463
    D6        0.23841   0.00001   0.00000  -0.00207  -0.00207   0.23633
    D7        1.30744  -0.00001   0.00000  -0.00115  -0.00115   1.30628
    D8       -1.46735   0.00002   0.00000   0.01046   0.01045  -1.45689
    D9       -2.84478  -0.00002   0.00000  -0.00181  -0.00180  -2.84659
   D10        0.66362   0.00001   0.00000   0.00980   0.00980   0.67342
   D11       -0.76110  -0.00001   0.00000  -0.00137  -0.00137  -0.76246
   D12        2.74731   0.00002   0.00000   0.01024   0.01024   2.75754
   D13        0.15700  -0.00002   0.00000  -0.00036  -0.00036   0.15664
   D14       -3.06196  -0.00002   0.00000  -0.00016  -0.00016  -3.06211
   D15       -1.65272   0.00003   0.00000   0.00250   0.00250  -1.65022
   D16        1.41152   0.00004   0.00000   0.00270   0.00270   1.41422
   D17        2.97555  -0.00001   0.00000   0.00214   0.00214   2.97769
   D18       -0.24340  -0.00000   0.00000   0.00234   0.00234  -0.24106
   D19       -3.08546  -0.00001   0.00000  -0.00080  -0.00080  -3.08627
   D20        0.07602  -0.00001   0.00000  -0.00127  -0.00127   0.07475
   D21       -0.02386  -0.00001   0.00000  -0.00014  -0.00014  -0.02399
   D22        3.13762  -0.00001   0.00000  -0.00060  -0.00060   3.13702
   D23       -0.21645   0.00002   0.00000   0.01319   0.01319  -0.20326
   D24        1.85889   0.00001   0.00000   0.01299   0.01299   1.87188
   D25       -2.30565   0.00002   0.00000   0.01293   0.01293  -2.29271
   D26        3.00777   0.00002   0.00000   0.01251   0.01251   3.02028
   D27       -1.20008   0.00001   0.00000   0.01232   0.01232  -1.18775
   D28        0.91857   0.00002   0.00000   0.01226   0.01226   0.93084
   D29       -2.81331   0.00002   0.00000   0.01072   0.01073  -2.80258
   D30       -0.02043  -0.00001   0.00000  -0.00067  -0.00067  -0.02109
   D31        2.82651  -0.00004   0.00000  -0.01020  -0.01019   2.81632
   D32        0.02711   0.00000   0.00000   0.00081   0.00081   0.02792
   D33        0.18522  -0.00001   0.00000  -0.00545  -0.00545   0.17977
   D34       -2.97522  -0.00001   0.00000  -0.00501  -0.00501  -2.98023
   D35        0.01854  -0.00000   0.00000   0.00072   0.00072   0.01925
   D36       -3.13091  -0.00000   0.00000   0.00066   0.00066  -3.13025
   D37       -3.10401  -0.00000   0.00000   0.00027   0.00027  -3.10374
   D38        0.02972  -0.00000   0.00000   0.00022   0.00022   0.02995
   D39       -0.00509   0.00000   0.00000  -0.00027  -0.00027  -0.00536
   D40       -3.13860  -0.00000   0.00000   0.00006   0.00005  -3.13855
   D41        3.13944  -0.00000   0.00000  -0.00028  -0.00027   3.13916
   D42        0.00593  -0.00001   0.00000   0.00005   0.00005   0.00597
   D43        3.12277  -0.00000   0.00000  -0.00057  -0.00057   3.12220
   D44       -0.02158   0.00001   0.00000  -0.00056  -0.00056  -0.02214
   D45        0.00717   0.00001   0.00000   0.00032   0.00032   0.00749
   D46       -3.12695   0.00000   0.00000   0.00061   0.00061  -3.12633
   D47       -0.02799   0.00001   0.00000   0.00006   0.00006  -0.02794
   D48        3.12149   0.00000   0.00000   0.00011   0.00011   3.12159
   D49        3.12135   0.00000   0.00000   0.00005   0.00005   3.12140
   D50       -0.01236   0.00000   0.00000   0.00010   0.00010  -0.01226
   D51       -0.05912   0.00001   0.00000  -0.00021  -0.00021  -0.05933
   D52       -3.12264   0.00000   0.00000  -0.00041  -0.00041  -3.12305
   D53        3.07469   0.00001   0.00000  -0.00020  -0.00020   3.07448
   D54        0.01117   0.00000   0.00000  -0.00041  -0.00041   0.01076
   D55       -0.96560   0.00000   0.00000   0.00051   0.00051  -0.96510
   D56        1.11634  -0.00000   0.00000   0.00048   0.00048   1.11682
   D57       -3.07549   0.00000   0.00000   0.00051   0.00051  -3.07498
   D58        2.18379  -0.00000   0.00000   0.00050   0.00050   2.18429
   D59       -2.01745  -0.00000   0.00000   0.00047   0.00047  -2.01698
   D60        0.07390  -0.00000   0.00000   0.00050   0.00050   0.07441
   D61        0.10662  -0.00000   0.00000  -0.00022  -0.00022   0.10641
   D62        2.21642  -0.00000   0.00000  -0.00025  -0.00025   2.21617
   D63       -1.99822  -0.00001   0.00000  -0.00027  -0.00027  -1.99850
   D64       -3.04296  -0.00000   0.00000  -0.00027  -0.00027  -3.04323
   D65       -0.93317  -0.00000   0.00000  -0.00030  -0.00030  -0.93347
   D66        1.13538  -0.00000   0.00000  -0.00033  -0.00033   1.13505
         Item               Value     Threshold  Converged?
 Maximum Force            0.000161     0.000450     YES
 RMS     Force            0.000021     0.000300     YES
 Maximum Displacement     0.032920     0.001800     NO 
 RMS     Displacement     0.007325     0.001200     NO 
 Predicted change in Energy=-1.307021D-06
 GradGradGradGradGradGradGradGradGradGradGradGradGradGradGradGradGradGrad

                          Input orientation:                          
 ---------------------------------------------------------------------
 Center     Atomic      Atomic             Coordinates (Angstroms)
 Number     Number       Type             X           Y           Z
 ---------------------------------------------------------------------
      1          6           0        4.811718   -2.118957    1.831671
      2          6           0        3.951267   -1.831910    2.920250
      3          6           0        4.030107   -0.544042    0.429476
      4          6           0        2.776776   -2.580407    3.036551
      5          6           0        2.420400    0.402323   -0.746294
      6          1           0        1.538854    0.349826   -1.374799
      7          6           0        3.038401    1.554420   -0.361997
      8          1           0        2.773443    2.573255   -0.608726
      9         16           0        4.419812    1.168878    0.640329
     10          7           0        2.988758   -0.774648   -0.275435
     11          8           0        1.861791   -2.317832    4.026791
     12          1           0        2.090085   -1.488332    4.462837
     13          6           0        4.240057   -0.689773    3.859623
     14          1           0        5.248304   -0.299352    3.703014
     15          1           0        3.550651    0.152348    3.705274
     16          1           0        4.170800   -0.996298    4.911743
     17          6           0        3.411989   -3.991379    1.159546
     18          6           0        2.480121   -3.649500    2.168070
     19          6           0        4.577682   -3.253005    1.022021
     20          1           0        5.288170   -3.499310    0.239616
     21          6           0        1.194550   -4.420471    2.320871
     22          1           0        0.547032   -3.972628    3.073685
     23          1           0        0.646824   -4.458603    1.372431
     24          1           0        1.389240   -5.459688    2.614984
     25          6           0        3.129018   -5.148758    0.234123
     26          1           0        2.934476   -6.074884    0.787058
     27          1           0        2.242625   -4.952753   -0.380756
     28          1           0        3.968926   -5.327437   -0.441656
     29          1           0        5.791616   -1.651229    1.813385
 ---------------------------------------------------------------------
                    Distance matrix (angstroms):
                    1          2          3          4          5
     1  C    0.000000
     2  C    1.416960   0.000000
     3  C    2.248872   2.805134   0.000000
     4  C    2.409494   1.397570   3.537579   0.000000
     5  C    4.326795   4.558388   2.206625   4.830486   0.000000
     6  H    5.204612   5.387686   3.203240   5.438633   1.083927
     7  C    4.631471   4.803509   2.452234   5.358672   1.362695
     8  H    5.668065   5.765972   3.517756   6.312550   2.203750
     9  S    3.518912   3.797671   1.769300   4.743267   2.551074
    10  N    3.093581   3.500947   1.278470   3.778220   1.389244
    11  O    3.682414   2.413806   4.559452   1.373579   5.522104
    12  H    3.837709   2.441643   4.574207   1.923139   5.551462
    13  C    2.545967   1.506750   3.439655   2.528465   5.071321
    14  H    2.646411   2.154938   3.501418   3.428678   5.318433
    15  H    3.203046   2.171183   3.383148   2.917880   4.599610
    16  H    3.340356   2.170826   4.507222   2.822950   6.085509
    17  C    2.432480   2.837993   3.577598   2.432588   4.890817
    18  C    2.809283   2.456355   3.881885   1.408980   4.991428
    19  C    1.412931   2.452587   2.826558   2.784597   4.598068
    20  H    2.160329   3.428313   3.217511   3.869668   4.941544
    21  C    4.315112   3.828758   5.161827   2.530113   5.845473
    22  H    4.813132   4.024305   5.556874   2.628957   6.102617
    23  H    4.799082   4.496065   5.259235   3.291445   5.591347
    24  H    4.846383   4.451735   5.992846   3.223854   6.835543
    25  C    3.816194   4.346591   4.696119   3.817604   5.681360
    26  H    4.501624   4.856666   5.649646   4.158901   6.676051
    27  H    4.418764   4.853428   4.825795   4.194202   5.370481
    28  H    4.021524   4.849890   4.862456   4.589697   5.943137
    29  H    1.085957   2.155152   2.498797   3.383603   4.704693
                    6          7          8          9         10
     6  H    0.000000
     7  C    2.173812   0.000000
     8  H    2.656071   1.081251   0.000000
     9  S    3.609918   1.749742   2.498589   0.000000
    10  N    2.138987   2.331205   3.371336   2.581440   0.000000
    11  O    6.033064   5.969942   6.800137   5.492608   4.707506
    12  H    6.144972   5.782444   6.533317   5.205762   4.875262
    13  C    5.981341   4.929751   5.724025   3.721659   4.321071
    14  H    6.321838   4.984421   5.741769   3.496017   4.599947
    15  H    5.467492   4.332539   5.007538   3.344048   4.125662
    16  H    6.946927   5.966642   6.720856   4.795307   5.324769
    17  C    5.364476   5.762859   6.828539   5.283327   3.547626
    18  C    5.425174   5.813235   6.820507   5.414163   3.807125
    19  C    5.287685   5.234141   6.313472   4.441133   3.217192
    20  H    5.610664   5.564493   6.627185   4.765143   3.602270
    21  C    6.044192   6.804182   7.745169   6.668385   4.822033
    22  H    6.281427   6.968435   7.833622   6.881477   5.235045
    23  H    5.609276   6.699576   7.608845   6.814686   4.666008
    24  H    7.049199   7.796144   8.765643   7.551259   5.732589
    25  C    5.945728   6.730242   7.776009   6.460934   4.405923
    26  H    6.920860   7.716049   8.761534   7.395934   5.405954
    27  H    5.440659   6.555678   7.548148   6.577015   4.245511
    28  H    6.245584   6.944939   7.992373   6.601219   4.660069
    29  H    5.679325   4.752754   5.729072   3.348270   3.603828
                   11         12         13         14         15
    11  O    0.000000
    12  H    0.964533   0.000000
    13  C    2.886982   2.371485   0.000000
    14  H    3.955699   3.459096   1.092482   0.000000
    15  H    3.009553   2.323572   1.099215   1.756719   0.000000
    16  H    2.803767   2.184716   1.098049   1.762888   1.777510
    17  C    3.664010   4.350219   4.344733   4.844826   4.865227
    18  C    2.368653   3.176277   3.836497   4.608946   4.238288
    19  C    4.156833   4.597981   3.838767   4.044938   4.455454
    20  H    5.242009   5.666337   4.700690   4.715554   5.325820
    21  C    2.788632   3.739979   5.055786   5.943640   5.327144
    22  H    2.318481   3.237667   5.003325   5.999247   5.141601
    23  H    3.620038   4.522845   5.770747   6.626055   5.927498
    24  H    3.476747   4.435924   5.694591   6.534926   6.111905
    25  C    4.899422   5.688596   5.853306   6.327820   6.350463
    26  H    5.075625   5.938082   6.335978   6.871199   6.904642
    27  H    5.149205   5.957002   6.335893   6.882254   6.668480
    28  H    5.784873   6.505599   6.331069   6.640537   6.884768
    29  H    4.559281   4.554938   2.742047   2.386097   3.442972
                   16         17         18         19         20
    16  H    0.000000
    17  C    4.860584   0.000000
    18  C    4.174400   1.415054   0.000000
    19  C    4.515331   1.386704   2.422890   0.000000
    20  H    5.416858   2.146732   3.409784   1.085180   0.000000
    21  C    5.224523   2.539652   1.506797   3.807305   4.683789
    22  H    5.036734   3.445614   2.159024   4.579664   5.543858
    23  H    6.077227   2.812429   2.156077   4.126487   4.872946
    24  H    5.738818   2.892360   2.160217   4.192034   4.968613
    25  C    6.341006   1.508644   2.531598   2.512626   2.717102
    26  H    6.658345   2.169738   2.827741   3.273887   3.531736
    27  H    6.883454   2.159672   2.872522   3.210828   3.431137
    28  H    6.889005   2.158490   3.441319   2.610785   2.355118
    29  H    3.557499   3.400946   3.883927   2.159996   2.479034
                   21         22         23         24         25
    21  C    0.000000
    22  H    1.089299   0.000000
    23  H    1.095900   1.772116   0.000000
    24  H    1.097442   1.769482   1.759912   0.000000
    25  C    2.937190   4.014105   2.816619   2.965131   0.000000
    26  H    2.849036   3.917656   2.861534   2.471342   1.096036
    27  H    2.946281   3.971000   2.421658   3.155900   1.096442
    28  H    4.018869   5.089448   3.883574   4.001915   1.092726
    29  H    5.390664   5.872215   5.877472   5.876039   4.670782
                   26         27         28         29
    26  H    0.000000
    27  H    1.761143   0.000000
    28  H    1.771583   1.767544   0.000000
    29  H    5.365196   5.320682   4.682084   0.000000
 Symmetry turned off by external request.
 Stoichiometry    C12H14NOS(2)
 Framework group  C1[X(C12H14NOS)]
 Deg. of freedom    81
 Full point group                 C1      NOp   1
 Rotational constants (GHZ):           0.8115791           0.3828184           0.3333994
 Standard basis: 6-31G(d,p) (6D, 7F)
   299 basis functions,   542 primitive gaussians,   299 cartesian basis functions
    59 alpha electrons       58 beta electrons
       nuclear repulsion energy      1077.6888973139 Hartrees.
 NAtoms=   29 NActive=   29 NUniq=   29 SFac= 1.00D+00 NAtFMM=   60 NAOKFM=F Big=F
 Integral buffers will be    131072 words long.
 Raffenetti 2 integral format.
 Two-electron integral symmetry is turned off.
 Nuclear repulsion after empirical dispersion term =     1077.6608068846 Hartrees.
 One-electron integrals computed using PRISM.
 NBasis=   299 RedAO= T EigKep=  4.02D-04  NBF=   299
 NBsUse=   299 1.00D-06 EigRej= -1.00D+00 NBFU=   299
 Initial guess from the checkpoint file:  "/scratch/jcuzick/job_48780647/Gau-2329488.chk"
 B after Tr=     0.002835   -0.000050   -0.003020
         Rot=    1.000000    0.000175    0.000055    0.000183 Ang=   0.03 deg.
 Initial guess <Sx>= 0.0000 <Sy>= 0.0000 <Sz>= 0.5000 <S**2>= 0.7753 S= 0.5125
 ExpMin= 1.17D-01 ExpMax= 2.19D+04 ExpMxC= 3.30D+03 IAcc=3 IRadAn=         5 AccDes= 0.00D+00
 Harris functional with IExCor=  402 and IRadAn=       5 diagonalized for initial guess.
 HarFok:  IExCor=  402 AccDes= 0.00D+00 IRadAn=         5 IDoV= 1 UseB2=F ITyADJ=14
 ICtDFT=  3500011 ScaDFX=  1.000000  1.000000  1.000000  1.000000
 FoFCou: FMM=F IPFlag=           0 FMFlag=      100000 FMFlg1=           0
         NFxFlg=           0 DoJE=T BraDBF=F KetDBF=T FulRan=T
         wScrn=  0.000000 ICntrl=       500 IOpCl=  0 I1Cent=   200000004 NGrid=           0
         NMat0=    1 NMatS0=      1 NMatT0=    0 NMatD0=    1 NMtDS0=    0 NMtDT0=    0
 Symmetry not used in FoFCou.
 Requested convergence on RMS density matrix=1.00D-08 within 128 cycles.
 Requested convergence on MAX density matrix=1.00D-06.
 Requested convergence on             energy=1.00D-06.
 No special actions if energy rises.
 Integral accuracy reduced to 1.0D-05 until final iterations.
 Initial convergence to 1.0D-05 achieved.  Increase integral accuracy.
 SCF Done:  E(UB3LYP) =  -993.824898500     A.U. after   13 cycles
            NFock= 13  Conv=0.79D-08     -V/T= 2.0070
 <Sx>= 0.0000 <Sy>= 0.0000 <Sz>= 0.5000 <S**2>= 0.7751 S= 0.5125
 <L.S>= 0.000000000000E+00
 Annihilation of the first spin contaminant:
 S**2 before annihilation     0.7751,   after     0.7505
 Calling FoFJK, ICntrl=      2127 FMM=F ISym2X=0 I1Cent= 0 IOpClX= 1 NMat=1 NMatS=1 NMatT=0.
 -------------------------------------------------------------------
 Center     Atomic                   Forces (Hartrees/Bohr)
 Number     Number              X              Y              Z
 -------------------------------------------------------------------
      1        6          -0.000004154    0.000001364   -0.000008791
      2        6           0.000006648    0.000017344   -0.000010452
      3        6          -0.000048344   -0.000001006   -0.000004295
      4        6          -0.000007216    0.000003398   -0.000004146
      5        6          -0.000004794   -0.000009292    0.000005318
      6        1          -0.000000621   -0.000000090    0.000000689
      7        6           0.000003390    0.000001490   -0.000000116
      8        1           0.000001196    0.000000547    0.000001185
      9       16           0.000023097   -0.000000345    0.000019752
     10        7           0.000004845   -0.000010731   -0.000010942
     11        8          -0.000001705    0.000001609   -0.000001675
     12        1           0.000002203   -0.000001162    0.000002423
     13        6          -0.000003494    0.000003244   -0.000002509
     14        1          -0.000003739    0.000004835   -0.000004374
     15        1           0.000001973   -0.000000104   -0.000003998
     16        1           0.000007209   -0.000003902   -0.000000608
     17        6           0.000004145   -0.000003567    0.000002178
     18        6          -0.000000013    0.000002220   -0.000001982
     19        6           0.000012052    0.000011150    0.000005239
     20        1          -0.000002479    0.000001972   -0.000003832
     21        6          -0.000001003    0.000001305    0.000000102
     22        1           0.000002121   -0.000002148    0.000004172
     23        1          -0.000000923    0.000004285    0.000001824
     24        1           0.000000159   -0.000000886   -0.000003542
     25        6          -0.000000845    0.000000041   -0.000000142
     26        1           0.000001118   -0.000000244    0.000000428
     27        1          -0.000000711    0.000001121    0.000002110
     28        1          -0.000001755    0.000000975   -0.000001171
     29        1           0.000011640   -0.000023425    0.000017154
 -------------------------------------------------------------------
 Cartesian Forces:  Max     0.000048344 RMS     0.000008264

 GradGradGradGradGradGradGradGradGradGradGradGradGradGradGradGradGradGrad
 Berny optimization.
 FormGI is forming the generalized inverse of G from B-inverse, IUseBI=4.
 Internal  Forces:  Max     0.000043859 RMS     0.000007993
 Search for a saddle point.
 Step number  12 out of a maximum of  157
 All quantities printed in internal units (Hartrees-Bohrs-Radians)
 Swapping is turned off.
 Update second derivatives using D2CorX and points    2    3    4    7    8
                                                      9   10   11   12
 ITU=  0  0  0  0  0  0  0  0  0  0  0  0
     Eigenvalues ---   -0.02147   0.00069   0.00104   0.00124   0.00242
     Eigenvalues ---    0.00293   0.00371   0.00948   0.01300   0.01433
     Eigenvalues ---    0.01467   0.01523   0.01710   0.01807   0.01928
     Eigenvalues ---    0.02550   0.03048   0.03478   0.03862   0.03914
     Eigenvalues ---    0.05129   0.05450   0.05766   0.05822   0.05861
     Eigenvalues ---    0.05916   0.06017   0.06072   0.06725   0.07430
     Eigenvalues ---    0.09208   0.11203   0.11943   0.12083   0.12194
     Eigenvalues ---    0.12229   0.12484   0.14477   0.14511   0.14593
     Eigenvalues ---    0.14705   0.14888   0.15073   0.15812   0.16953
     Eigenvalues ---    0.18980   0.19079   0.19339   0.20140   0.20547
     Eigenvalues ---    0.22140   0.23224   0.25030   0.27187   0.30128
     Eigenvalues ---    0.31349   0.32198   0.32559   0.32938   0.33206
     Eigenvalues ---    0.33464   0.33677   0.33957   0.34590   0.34622
     Eigenvalues ---    0.35103   0.35253   0.36056   0.36576   0.37033
     Eigenvalues ---    0.37379   0.38472   0.39703   0.41124   0.42939
     Eigenvalues ---    0.45273   0.48418   0.48617   0.51406   0.53558
     Eigenvalues ---    0.58261
 Eigenvectors required to have negative eigenvalues:
                          R2        D18       D6        D17       D5
   1                    0.89401   0.16132  -0.14989   0.14403  -0.14118
                          D3        D13       D4        A1        D14
   1                    0.11519  -0.11422   0.10647  -0.10018  -0.09693
 RFO step:  Lambda0=9.655732481D-10 Lambda=-2.85096836D-07.
 Linear search not attempted -- option 19 set.
 Iteration  1 RMS(Cart)=  0.00149578 RMS(Int)=  0.00000170
 Iteration  2 RMS(Cart)=  0.00000183 RMS(Int)=  0.00000003
 Iteration  3 RMS(Cart)=  0.00000000 RMS(Int)=  0.00000003
 Variable       Old X    -DE/DX   Delta X   Delta X   Delta X     New X
                                 (Linear)    (Quad)   (Total)
    R1        2.67767  -0.00002   0.00000   0.00001   0.00001   2.67768
    R2        4.24975  -0.00001   0.00000  -0.00027  -0.00027   4.24949
    R3        2.67005  -0.00002   0.00000  -0.00001  -0.00001   2.67004
    R4        2.05216   0.00000   0.00000   0.00001   0.00001   2.05217
    R5        2.64103   0.00000   0.00000  -0.00000  -0.00000   2.64102
    R6        2.84735  -0.00000   0.00000  -0.00000  -0.00000   2.84735
    R7        3.34349  -0.00000   0.00000  -0.00000  -0.00000   3.34349
    R8        2.41596  -0.00000   0.00000  -0.00001  -0.00001   2.41595
    R9        2.59569   0.00000   0.00000  -0.00003  -0.00003   2.59566
   R10        2.66259   0.00000   0.00000   0.00001   0.00001   2.66259
   R11        2.04833   0.00000   0.00000   0.00000   0.00000   2.04833
   R12        2.57512   0.00001   0.00000   0.00001   0.00001   2.57514
   R13        2.62529  -0.00001   0.00000   0.00001   0.00001   2.62530
   R14        2.04327  -0.00000   0.00000  -0.00000  -0.00000   2.04327
   R15        3.30653   0.00000   0.00000   0.00002   0.00002   3.30656
   R16        1.82270   0.00000   0.00000   0.00000   0.00000   1.82270
   R17        2.06449  -0.00000   0.00000  -0.00002  -0.00002   2.06447
   R18        2.07721  -0.00000   0.00000   0.00000   0.00000   2.07721
   R19        2.07501   0.00000   0.00000   0.00002   0.00002   2.07503
   R20        2.67406   0.00000   0.00000   0.00001   0.00001   2.67408
   R21        2.62049  -0.00000   0.00000  -0.00001  -0.00001   2.62048
   R22        2.85092  -0.00000   0.00000  -0.00001  -0.00001   2.85091
   R23        2.84743  -0.00000   0.00000  -0.00000  -0.00000   2.84743
   R24        2.05069   0.00000   0.00000  -0.00000  -0.00000   2.05069
   R25        2.05848   0.00000   0.00000  -0.00001  -0.00001   2.05846
   R26        2.07095  -0.00000   0.00000   0.00005   0.00005   2.07100
   R27        2.07386   0.00000   0.00000  -0.00003  -0.00003   2.07383
   R28        2.07121   0.00000   0.00000   0.00001   0.00001   2.07122
   R29        2.07198  -0.00000   0.00000  -0.00001  -0.00001   2.07196
   R30        2.06495  -0.00000   0.00000  -0.00000  -0.00000   2.06495
    A1        1.69722  -0.00003   0.00000  -0.00044  -0.00044   1.69678
    A2        2.09698   0.00002   0.00000   0.00004   0.00004   2.09702
    A3        2.06420  -0.00001   0.00000  -0.00000  -0.00000   2.06420
    A4        1.71856   0.00001   0.00000  -0.00005  -0.00005   1.71851
    A5        1.57228   0.00002   0.00000   0.00058   0.00058   1.57286
    A6        2.07774  -0.00001   0.00000  -0.00006  -0.00006   2.07768
    A7        2.05529  -0.00000   0.00000  -0.00000  -0.00000   2.05528
    A8        2.11312  -0.00001   0.00000   0.00005   0.00005   2.11317
    A9        2.11199   0.00001   0.00000  -0.00004  -0.00004   2.11195
   A10        2.12603  -0.00004   0.00000  -0.00058  -0.00058   2.12545
   A11        2.09504   0.00002   0.00000   0.00020   0.00020   2.09524
   A12        2.00396   0.00003   0.00000   0.00008   0.00008   2.00404
   A13        2.11463   0.00000   0.00000   0.00000   0.00000   2.11463
   A14        2.13178  -0.00001   0.00000  -0.00002  -0.00002   2.13176
   A15        2.03663   0.00000   0.00000   0.00002   0.00002   2.03664
   A16        2.18133  -0.00000   0.00000  -0.00001  -0.00001   2.18133
   A17        2.08085  -0.00000   0.00000  -0.00000  -0.00000   2.08084
   A18        2.02100   0.00000   0.00000   0.00001   0.00001   2.02101
   A19        2.24103  -0.00000   0.00000  -0.00001  -0.00001   2.24102
   A20        1.91060   0.00001   0.00000   0.00002   0.00002   1.91062
   A21        2.13152  -0.00000   0.00000  -0.00001  -0.00001   2.13151
   A22        1.54195  -0.00002   0.00000  -0.00005  -0.00005   1.54191
   A23        1.94689  -0.00002   0.00000  -0.00006  -0.00006   1.94684
   A24        1.90991   0.00000   0.00000   0.00002   0.00002   1.90993
   A25        1.93736   0.00000   0.00000   0.00001   0.00001   1.93736
   A26        1.95301  -0.00000   0.00000   0.00000   0.00000   1.95301
   A27        1.95376  -0.00000   0.00000   0.00002   0.00002   1.95378
   A28        1.85971  -0.00000   0.00000  -0.00010  -0.00010   1.85961
   A29        1.87059   0.00000   0.00000   0.00006   0.00006   1.87065
   A30        1.88478   0.00001   0.00000   0.00001   0.00001   1.88479
   A31        2.08934  -0.00000   0.00000   0.00001   0.00001   2.08935
   A32        2.09326   0.00000   0.00000  -0.00002  -0.00002   2.09323
   A33        2.10056  -0.00000   0.00000   0.00001   0.00001   2.10057
   A34        2.07599   0.00000   0.00000   0.00001   0.00001   2.07600
   A35        2.10060  -0.00000   0.00000   0.00004   0.00004   2.10064
   A36        2.10657  -0.00000   0.00000  -0.00005  -0.00005   2.10652
   A37        2.10572  -0.00001   0.00000  -0.00003  -0.00003   2.10569
   A38        2.07930   0.00000   0.00000   0.00001   0.00001   2.07931
   A39        2.09557   0.00000   0.00000   0.00001   0.00001   2.09558
   A40        1.94645   0.00000   0.00000   0.00006   0.00006   1.94651
   A41        1.93527  -0.00000   0.00000  -0.00008  -0.00008   1.93518
   A42        1.93942  -0.00000   0.00000   0.00002   0.00002   1.93945
   A43        1.89159   0.00000   0.00000  -0.00006  -0.00006   1.89152
   A44        1.88552   0.00000   0.00000   0.00010   0.00010   1.88562
   A45        1.86257   0.00000   0.00000  -0.00003  -0.00003   1.86255
   A46        1.95204   0.00000   0.00000   0.00001   0.00001   1.95204
   A47        1.93745  -0.00000   0.00000  -0.00002  -0.00002   1.93743
   A48        1.93974   0.00000   0.00000   0.00001   0.00001   1.93975
   A49        1.86552   0.00000   0.00000  -0.00000  -0.00000   1.86551
   A50        1.88626   0.00000   0.00000  -0.00002  -0.00002   1.88624
   A51        1.87948   0.00000   0.00000   0.00003   0.00003   1.87951
    D1        1.65765  -0.00000   0.00000  -0.00022  -0.00022   1.65743
    D2       -1.40457   0.00000   0.00000  -0.00029  -0.00029  -1.40487
    D3       -0.16113   0.00001   0.00000   0.00011   0.00011  -0.16102
    D4        3.05983   0.00001   0.00000   0.00004   0.00004   3.05987
    D5       -2.98463   0.00001   0.00000   0.00021   0.00021  -2.98442
    D6        0.23633   0.00001   0.00000   0.00013   0.00013   0.23646
    D7        1.30628  -0.00000   0.00000  -0.00094  -0.00094   1.30535
    D8       -1.45689  -0.00001   0.00000  -0.00001  -0.00001  -1.45690
    D9       -2.84659   0.00001   0.00000  -0.00103  -0.00103  -2.84761
   D10        0.67342   0.00000   0.00000  -0.00009  -0.00009   0.67333
   D11       -0.76246   0.00000   0.00000  -0.00099  -0.00099  -0.76346
   D12        2.75754  -0.00000   0.00000  -0.00006  -0.00006   2.75748
   D13        0.15664  -0.00001   0.00000   0.00006   0.00006   0.15669
   D14       -3.06211  -0.00001   0.00000  -0.00014  -0.00014  -3.06226
   D15       -1.65022   0.00002   0.00000   0.00061   0.00061  -1.64961
   D16        1.41422   0.00002   0.00000   0.00041   0.00041   1.41462
   D17        2.97769  -0.00001   0.00000  -0.00002  -0.00002   2.97766
   D18       -0.24106  -0.00001   0.00000  -0.00023  -0.00023  -0.24129
   D19       -3.08627  -0.00000   0.00000  -0.00004  -0.00004  -3.08631
   D20        0.07475  -0.00000   0.00000  -0.00018  -0.00018   0.07457
   D21       -0.02399  -0.00000   0.00000   0.00004   0.00004  -0.02395
   D22        3.13702  -0.00000   0.00000  -0.00010  -0.00010   3.13693
   D23       -0.20326   0.00000   0.00000   0.00371   0.00371  -0.19955
   D24        1.87188  -0.00000   0.00000   0.00359   0.00359   1.87548
   D25       -2.29271   0.00000   0.00000   0.00362   0.00362  -2.28909
   D26        3.02028   0.00001   0.00000   0.00363   0.00363   3.02391
   D27       -1.18775   0.00000   0.00000   0.00351   0.00351  -1.18424
   D28        0.93084   0.00001   0.00000   0.00354   0.00354   0.93437
   D29       -2.80258  -0.00000   0.00000   0.00088   0.00088  -2.80169
   D30       -0.02109   0.00000   0.00000   0.00003   0.00003  -0.02106
   D31        2.81632  -0.00001   0.00000  -0.00105  -0.00105   2.81527
   D32        0.02792  -0.00000   0.00000  -0.00004  -0.00004   0.02788
   D33        0.17977  -0.00000   0.00000  -0.00198  -0.00198   0.17780
   D34       -2.98023  -0.00000   0.00000  -0.00185  -0.00185  -2.98207
   D35        0.01925  -0.00000   0.00000   0.00006   0.00006   0.01931
   D36       -3.13025  -0.00000   0.00000   0.00024   0.00024  -3.13001
   D37       -3.10374  -0.00000   0.00000  -0.00007  -0.00007  -3.10381
   D38        0.02995  -0.00000   0.00000   0.00011   0.00011   0.03005
   D39       -0.00536   0.00000   0.00000  -0.00000  -0.00000  -0.00536
   D40       -3.13855  -0.00000   0.00000   0.00001   0.00001  -3.13854
   D41        3.13916  -0.00000   0.00000  -0.00002  -0.00002   3.13914
   D42        0.00597  -0.00000   0.00000  -0.00001  -0.00001   0.00596
   D43        3.12220   0.00000   0.00000   0.00002   0.00002   3.12222
   D44       -0.02214   0.00000   0.00000   0.00004   0.00004  -0.02210
   D45        0.00749  -0.00000   0.00000  -0.00001  -0.00001   0.00748
   D46       -3.12633  -0.00000   0.00000  -0.00000  -0.00000  -3.12633
   D47       -0.02794   0.00000   0.00000   0.00012   0.00012  -0.02782
   D48        3.12159  -0.00000   0.00000  -0.00006  -0.00006   3.12153
   D49        3.12140   0.00000   0.00000   0.00016   0.00016   3.12156
   D50       -0.01226   0.00000   0.00000  -0.00002  -0.00002  -0.01228
   D51       -0.05933   0.00000   0.00000  -0.00018  -0.00018  -0.05951
   D52       -3.12305   0.00001   0.00000   0.00003   0.00003  -3.12302
   D53        3.07448   0.00000   0.00000  -0.00021  -0.00021   3.07427
   D54        0.01076   0.00000   0.00000  -0.00001  -0.00001   0.01075
   D55       -0.96510  -0.00000   0.00000  -0.00105  -0.00105  -0.96614
   D56        1.11682  -0.00000   0.00000  -0.00106  -0.00106   1.11576
   D57       -3.07498  -0.00000   0.00000  -0.00103  -0.00103  -3.07601
   D58        2.18429  -0.00000   0.00000  -0.00101  -0.00101   2.18328
   D59       -2.01698  -0.00000   0.00000  -0.00102  -0.00102  -2.01800
   D60        0.07441  -0.00000   0.00000  -0.00100  -0.00100   0.07341
   D61        0.10641  -0.00001   0.00000  -0.00322  -0.00322   0.10319
   D62        2.21617  -0.00000   0.00000  -0.00332  -0.00332   2.21285
   D63       -1.99850  -0.00001   0.00000  -0.00339  -0.00339  -2.00189
   D64       -3.04323  -0.00000   0.00000  -0.00303  -0.00303  -3.04626
   D65       -0.93347  -0.00000   0.00000  -0.00313  -0.00313  -0.93660
   D66        1.13505  -0.00000   0.00000  -0.00321  -0.00321   1.13184
         Item               Value     Threshold  Converged?
 Maximum Force            0.000044     0.000450     YES
 RMS     Force            0.000008     0.000300     YES
 Maximum Displacement     0.007002     0.001800     NO 
 RMS     Displacement     0.001496     0.001200     NO 
 Predicted change in Energy=-1.420661D-07
 GradGradGradGradGradGradGradGradGradGradGradGradGradGradGradGradGradGrad

                          Input orientation:                          
 ---------------------------------------------------------------------
 Center     Atomic      Atomic             Coordinates (Angstroms)
 Number     Number       Type             X           Y           Z
 ---------------------------------------------------------------------
      1          6           0        4.812204   -2.119289    1.831866
      2          6           0        3.951344   -1.831601    2.919960
      3          6           0        4.030584   -0.544933    0.429273
      4          6           0        2.776653   -2.579811    3.036076
      5          6           0        2.420384    0.401415   -0.745753
      6          1           0        1.538843    0.348932   -1.374267
      7          6           0        3.037820    1.553556   -0.360650
      8          1           0        2.772337    2.572431   -0.606648
      9         16           0        4.419480    1.168017    0.641357
     10          7           0        2.989354   -0.775619   -0.275778
     11          8           0        1.861330   -2.316666    4.025829
     12          1           0        2.090614   -1.487945    4.462836
     13          6           0        4.239965   -0.689200    3.859062
     14          1           0        5.247018   -0.296628    3.700237
     15          1           0        3.548529    0.151592    3.706551
     16          1           0        4.173726   -0.996204    4.911250
     17          6           0        3.412244   -3.991483    1.159703
     18          6           0        2.480075   -3.649078    2.167778
     19          6           0        4.578242   -3.253542    1.022491
     20          1           0        5.288955   -3.500231    0.240412
     21          6           0        1.194167   -4.419578    2.320102
     22          1           0        0.547729   -3.973199    3.074702
     23          1           0        0.645385   -4.454897    1.372136
     24          1           0        1.388476   -5.459673    2.611284
     25          6           0        3.129210   -5.148929    0.234394
     26          1           0        2.935131   -6.075118    0.787401
     27          1           0        2.242514   -4.953145   -0.380107
     28          1           0        3.968897   -5.327399   -0.441712
     29          1           0        5.792286   -1.651919    1.813899
 ---------------------------------------------------------------------
                    Distance matrix (angstroms):
                    1          2          3          4          5
     1  C    0.000000
     2  C    1.416966   0.000000
     3  C    2.248731   2.804517   0.000000
     4  C    2.409496   1.397569   3.536735   0.000000
     5  C    4.326531   4.557154   2.206582   4.828755   0.000000
     6  H    5.204449   5.386583   3.203206   5.436988   1.083928
     7  C    4.630912   4.801688   2.452185   5.356368   1.362703
     8  H    5.667419   5.763898   3.517709   6.309917   2.203754
     9  S    3.518227   3.795905   1.769299   4.741284   2.551106
    10  N    3.093605   3.500466   1.278465   3.777397   1.389249
    11  O    3.682403   2.413792   4.558499   1.373562   5.519828
    12  H    3.837662   2.441492   4.574099   1.923139   5.550480
    13  C    2.546004   1.506750   3.439201   2.528438   5.069974
    14  H    2.646123   2.154935   3.498652   3.428809   5.314504
    15  H    3.204406   2.171184   3.384978   2.916486   4.599797
    16  H    3.339398   2.170847   4.506911   2.824164   6.085165
    17  C    2.432448   2.837997   3.576951   2.432606   4.890000
    18  C    2.809256   2.456346   3.881004   1.408983   4.989862
    19  C    1.412924   2.452612   2.826375   2.784630   4.598016
    20  H    2.160328   3.428338   3.217600   3.869699   4.942071
    21  C    4.315078   3.828770   5.160753   2.530144   5.843377
    22  H    4.813250   4.024299   5.557120   2.628902   6.102456
    23  H    4.798833   4.495199   5.257032   3.290434   5.587472
    24  H    4.846398   4.452694   5.991375   3.225072   6.832780
    25  C    3.816163   4.346588   4.695448   3.817602   5.680620
    26  H    4.501432   4.856741   5.649001   4.159186   6.675403
    27  H    4.418921   4.853305   4.825414   4.193844   5.369977
    28  H    4.021479   4.849923   4.861523   4.589739   5.942193
    29  H    1.085964   2.155162   2.499240   3.383599   4.705074
                    6          7          8          9         10
     6  H    0.000000
     7  C    2.173815   0.000000
     8  H    2.656067   1.081251   0.000000
     9  S    3.609947   1.749755   2.498595   0.000000
    10  N    2.138990   2.331224   3.371352   2.581496   0.000000
    11  O    6.030792   5.966903   6.796546   5.490155   4.706494
    12  H    6.144130   5.780479   6.530778   5.203984   4.875408
    13  C    5.980093   4.927582   5.721428   3.719557   4.320694
    14  H    6.318061   4.979411   5.736271   3.490952   4.597300
    15  H    5.467403   4.332257   5.006658   3.344711   4.126905
    16  H    6.946922   5.965273   6.719096   4.793353   5.325097
    17  C    5.363752   5.761867   6.827477   5.282391   3.547002
    18  C    5.423660   5.811318   6.818360   5.412547   3.806192
    19  C    5.287742   5.233943   6.313267   4.440794   3.217167
    20  H    5.611290   5.565037   6.627827   4.765426   3.602516
    21  C    6.042008   6.801751   7.742395   6.666488   4.820760
    22  H    6.281437   6.967583   7.832400   6.880678   5.235625
    23  H    5.605156   6.695356   7.604134   6.811388   4.663357
    24  H    7.046071   7.793465   8.762696   7.549429   5.730471
    25  C    5.945043   6.729467   7.775224   6.460204   4.405187
    26  H    6.920321   7.715259   8.760706   7.395108   5.405365
    27  H    5.440177   6.555154   7.547604   6.576564   4.245041
    28  H    6.244642   6.944135   7.991638   6.600493   4.658942
    29  H    5.679752   4.752979   5.729247   3.348356   3.604313
                   11         12         13         14         15
    11  O    0.000000
    12  H    0.964533   0.000000
    13  C    2.886929   2.371127   0.000000
    14  H    3.955938   3.458855   1.092472   0.000000
    15  H    3.006805   2.320682   1.099215   1.756646   0.000000
    16  H    2.806202   2.186834   1.098061   1.762928   1.777528
    17  C    3.664018   4.350298   4.344737   4.844859   4.865191
    18  C    2.368654   3.176392   3.836474   4.609048   4.237276
    19  C    4.156848   4.597999   3.838804   4.044864   4.456391
    20  H    5.242024   5.666352   4.700734   4.715423   5.327195
    21  C    2.788700   3.740240   5.055789   5.943828   5.325491
    22  H    2.318252   3.237884   5.003247   5.999315   5.139838
    23  H    3.618376   4.521495   5.769427   6.624672   5.924313
    24  H    3.478940   4.438002   5.696082   6.536911   6.111606
    25  C    4.899409   5.688691   5.853305   6.327875   6.350372
    26  H    5.076064   5.938365   6.336072   6.871709   6.904318
    27  H    5.148649   5.956910   6.335739   6.881816   6.668192
    28  H    5.784918   6.505686   6.331116   6.640632   6.885067
    29  H    4.559269   4.554792   2.742120   2.385875   3.445175
                   16         17         18         19         20
    16  H    0.000000
    17  C    4.860623   0.000000
    18  C    4.175265   1.415060   0.000000
    19  C    4.514605   1.386700   2.422898   0.000000
    20  H    5.415774   2.146734   3.409794   1.085180   0.000000
    21  C    5.226023   2.539618   1.506796   3.807283   4.683759
    22  H    5.038181   3.445723   2.159058   4.579794   5.544017
    23  H    6.077589   2.813430   2.156033   4.127090   4.873903
    24  H    5.741953   2.891074   2.160218   4.191168   4.967311
    25  C    6.341066   1.508637   2.531580   2.512625   2.717120
    26  H    6.658500   2.169742   2.828106   3.273587   3.531250
    27  H    6.883707   2.159646   2.872062   3.211161   3.431735
    28  H    6.888789   2.158487   3.441335   2.610762   2.355078
    29  H    3.555739   3.400902   3.883892   2.159959   2.479004
                   21         22         23         24         25
    21  C    0.000000
    22  H    1.089293   0.000000
    23  H    1.095924   1.772090   0.000000
    24  H    1.097424   1.769525   1.759899   0.000000
    25  C    2.937094   4.014192   2.818781   2.962485   0.000000
    26  H    2.849726   3.917844   2.865304   2.469304   1.096042
    27  H    2.945310   3.970932   2.422690   3.151883   1.096436
    28  H    4.018816   5.089541   3.885491   3.999607   1.092724
    29  H    5.390629   5.872252   5.877281   5.876084   4.670748
                   26         27         28         29
    26  H    0.000000
    27  H    1.761140   0.000000
    28  H    1.771574   1.767557   0.000000
    29  H    5.364860   5.320961   4.682060   0.000000
 Symmetry turned off by external request.
 Stoichiometry    C12H14NOS(2)
 Framework group  C1[X(C12H14NOS)]
 Deg. of freedom    81
 Full point group                 C1      NOp   1
 Rotational constants (GHZ):           0.8115294           0.3829830           0.3335653
 Standard basis: 6-31G(d,p) (6D, 7F)
   299 basis functions,   542 primitive gaussians,   299 cartesian basis functions
    59 alpha electrons       58 beta electrons
       nuclear repulsion energy      1077.7742526777 Hartrees.
 NAtoms=   29 NActive=   29 NUniq=   29 SFac= 1.00D+00 NAtFMM=   60 NAOKFM=F Big=F
 Integral buffers will be    131072 words long.
 Raffenetti 2 integral format.
 Two-electron integral symmetry is turned off.
 Nuclear repulsion after empirical dispersion term =     1077.7461538641 Hartrees.
 One-electron integrals computed using PRISM.
 NBasis=   299 RedAO= T EigKep=  4.02D-04  NBF=   299
 NBsUse=   299 1.00D-06 EigRej= -1.00D+00 NBFU=   299
 Initial guess from the checkpoint file:  "/scratch/jcuzick/job_48780647/Gau-2329488.chk"
 B after Tr=     0.000316   -0.000309   -0.000664
         Rot=    1.000000    0.000013    0.000057    0.000001 Ang=   0.01 deg.
 Initial guess <Sx>= 0.0000 <Sy>= 0.0000 <Sz>= 0.5000 <S**2>= 0.7751 S= 0.5125
 Requested convergence on RMS density matrix=1.00D-08 within 128 cycles.
 Requested convergence on MAX density matrix=1.00D-06.
 Requested convergence on             energy=1.00D-06.
 No special actions if energy rises.
 SCF Done:  E(UB3LYP) =  -993.824898678     A.U. after    9 cycles
            NFock=  9  Conv=0.55D-08     -V/T= 2.0070
 <Sx>= 0.0000 <Sy>= 0.0000 <Sz>= 0.5000 <S**2>= 0.7751 S= 0.5125
 <L.S>= 0.000000000000E+00
 Annihilation of the first spin contaminant:
 S**2 before annihilation     0.7751,   after     0.7505
 Calling FoFJK, ICntrl=      2127 FMM=F ISym2X=0 I1Cent= 0 IOpClX= 1 NMat=1 NMatS=1 NMatT=0.
 -------------------------------------------------------------------
 Center     Atomic                   Forces (Hartrees/Bohr)
 Number     Number              X              Y              Z
 -------------------------------------------------------------------
      1        6          -0.000003918   -0.000003562   -0.000003866
      2        6           0.000013006    0.000003152   -0.000005780
      3        6          -0.000010232   -0.000001998    0.000000666
      4        6          -0.000005798   -0.000004924   -0.000005494
      5        6          -0.000000698    0.000000450    0.000001675
      6        1          -0.000000406    0.000000525    0.000000288
      7        6          -0.000000837    0.000000430   -0.000003319
      8        1           0.000000288    0.000000164    0.000000141
      9       16           0.000005853   -0.000001548    0.000006103
     10        7          -0.000000597   -0.000002459   -0.000002019
     11        8           0.000001082    0.000002716    0.000001084
     12        1           0.000001006    0.000000066    0.000001228
     13        6          -0.000004088    0.000002748   -0.000002313
     14        1          -0.000000724    0.000000507   -0.000000936
     15        1           0.000002931    0.000000858   -0.000002013
     16        1           0.000001010   -0.000001762    0.000000124
     17        6          -0.000001291   -0.000000972    0.000001673
     18        6           0.000001358    0.000003926    0.000001156
     19        6           0.000006083    0.000006323    0.000004100
     20        1          -0.000001360    0.000000892   -0.000001820
     21        6          -0.000000581    0.000000715    0.000000400
     22        1           0.000001409   -0.000001303    0.000002167
     23        1          -0.000000634    0.000002260    0.000000922
     24        1          -0.000000036   -0.000000716   -0.000002107
     25        6          -0.000000956    0.000000363    0.000000357
     26        1           0.000000310   -0.000000345    0.000000267
     27        1          -0.000001554   -0.000000327    0.000001490
     28        1          -0.000001496    0.000000628   -0.000000916
     29        1           0.000000868   -0.000006806    0.000006742
 -------------------------------------------------------------------
 Cartesian Forces:  Max     0.000013006 RMS     0.000003146

 GradGradGradGradGradGradGradGradGradGradGradGradGradGradGradGradGradGrad
 Berny optimization.
 FormGI is forming the generalized inverse of G from B-inverse, IUseBI=4.
 Internal  Forces:  Max     0.000010696 RMS     0.000002540
 Search for a saddle point.
 Step number  13 out of a maximum of  157
 All quantities printed in internal units (Hartrees-Bohrs-Radians)
 Swapping is turned off.
 Update second derivatives using D2CorX and points    2    3    4    7    8
                                                      9   10   11   12   13
 ITU=  0  0  0  0  0  0  0  0  0  0  0  0  0
     Eigenvalues ---   -0.02094   0.00071   0.00075   0.00134   0.00247
     Eigenvalues ---    0.00309   0.00370   0.00942   0.01295   0.01432
     Eigenvalues ---    0.01467   0.01523   0.01709   0.01807   0.01927
     Eigenvalues ---    0.02549   0.03048   0.03479   0.03861   0.03912
     Eigenvalues ---    0.05127   0.05444   0.05766   0.05822   0.05861
     Eigenvalues ---    0.05916   0.06017   0.06072   0.06746   0.07486
     Eigenvalues ---    0.09208   0.11204   0.11943   0.12085   0.12194
     Eigenvalues ---    0.12232   0.12484   0.14477   0.14512   0.14595
     Eigenvalues ---    0.14705   0.14889   0.15074   0.15812   0.16953
     Eigenvalues ---    0.18979   0.19080   0.19339   0.20140   0.20549
     Eigenvalues ---    0.22141   0.23225   0.25031   0.27187   0.30128
     Eigenvalues ---    0.31349   0.32198   0.32559   0.32938   0.33206
     Eigenvalues ---    0.33464   0.33677   0.33957   0.34590   0.34622
     Eigenvalues ---    0.35103   0.35253   0.36056   0.36576   0.37035
     Eigenvalues ---    0.37379   0.38471   0.39699   0.41121   0.42939
     Eigenvalues ---    0.45275   0.48416   0.48618   0.51406   0.53558
     Eigenvalues ---    0.58261
 Eigenvectors required to have negative eigenvalues:
                          R2        D18       D6        D17       D5
   1                    0.89198   0.16156  -0.14966   0.14418  -0.14121
                          D3        D13       D4        A1        D14
   1                    0.11653  -0.11538   0.10808  -0.10205  -0.09801
 RFO step:  Lambda0=2.252241102D-11 Lambda=-6.82998554D-08.
 Linear search not attempted -- option 19 set.
 Iteration  1 RMS(Cart)=  0.00098564 RMS(Int)=  0.00000137
 Iteration  2 RMS(Cart)=  0.00000142 RMS(Int)=  0.00000000
 Iteration  3 RMS(Cart)=  0.00000000 RMS(Int)=  0.00000000
 Variable       Old X    -DE/DX   Delta X   Delta X   Delta X     New X
                                 (Linear)    (Quad)   (Total)
    R1        2.67768  -0.00001   0.00000  -0.00001  -0.00001   2.67766
    R2        4.24949  -0.00000   0.00000  -0.00007  -0.00007   4.24941
    R3        2.67004  -0.00001   0.00000  -0.00001  -0.00001   2.67003
    R4        2.05217  -0.00000   0.00000   0.00000   0.00000   2.05217
    R5        2.64102   0.00000   0.00000   0.00002   0.00002   2.64104
    R6        2.84735  -0.00000   0.00000  -0.00000  -0.00000   2.84734
    R7        3.34349  -0.00000   0.00000  -0.00000  -0.00000   3.34349
    R8        2.41595   0.00000   0.00000   0.00000   0.00000   2.41595
    R9        2.59566   0.00000   0.00000  -0.00001  -0.00001   2.59565
   R10        2.66259  -0.00000   0.00000  -0.00001  -0.00001   2.66258
   R11        2.04833   0.00000   0.00000   0.00000   0.00000   2.04833
   R12        2.57514   0.00000   0.00000  -0.00000  -0.00000   2.57513
   R13        2.62530   0.00000   0.00000   0.00001   0.00001   2.62531
   R14        2.04327   0.00000   0.00000  -0.00000  -0.00000   2.04327
   R15        3.30656   0.00000   0.00000   0.00001   0.00001   3.30657
   R16        1.82270   0.00000   0.00000  -0.00000  -0.00000   1.82270
   R17        2.06447  -0.00000   0.00000  -0.00000  -0.00000   2.06447
   R18        2.07721  -0.00000   0.00000  -0.00001  -0.00001   2.07721
   R19        2.07503   0.00000   0.00000   0.00001   0.00001   2.07504
   R20        2.67408  -0.00000   0.00000   0.00001   0.00001   2.67408
   R21        2.62048   0.00000   0.00000  -0.00000  -0.00000   2.62048
   R22        2.85091  -0.00000   0.00000  -0.00001  -0.00001   2.85090
   R23        2.84743  -0.00000   0.00000  -0.00000  -0.00000   2.84743
   R24        2.05069   0.00000   0.00000  -0.00000  -0.00000   2.05069
   R25        2.05846  -0.00000   0.00000  -0.00001  -0.00001   2.05845
   R26        2.07100  -0.00000   0.00000   0.00005   0.00005   2.07105
   R27        2.07383   0.00000   0.00000  -0.00003  -0.00003   2.07380
   R28        2.07122   0.00000   0.00000   0.00002   0.00002   2.07124
   R29        2.07196  -0.00000   0.00000  -0.00001  -0.00001   2.07195
   R30        2.06495  -0.00000   0.00000  -0.00000  -0.00000   2.06495
    A1        1.69678  -0.00001   0.00000  -0.00013  -0.00013   1.69665
    A2        2.09702   0.00001   0.00000   0.00002   0.00002   2.09704
    A3        2.06420  -0.00000   0.00000  -0.00003  -0.00003   2.06418
    A4        1.71851   0.00000   0.00000  -0.00005  -0.00005   1.71846
    A5        1.57286   0.00001   0.00000   0.00024   0.00024   1.57310
    A6        2.07768  -0.00000   0.00000  -0.00001  -0.00001   2.07767
    A7        2.05528  -0.00000   0.00000   0.00000   0.00000   2.05529
    A8        2.11317   0.00000   0.00000   0.00001   0.00001   2.11317
    A9        2.11195  -0.00000   0.00000  -0.00002  -0.00002   2.11193
   A10        2.12545  -0.00001   0.00000  -0.00012  -0.00012   2.12533
   A11        2.09524   0.00001   0.00000   0.00008   0.00008   2.09532
   A12        2.00404   0.00000   0.00000   0.00002   0.00002   2.00405
   A13        2.11463  -0.00000   0.00000  -0.00001  -0.00001   2.11462
   A14        2.13176  -0.00000   0.00000  -0.00001  -0.00001   2.13175
   A15        2.03664   0.00000   0.00000   0.00003   0.00003   2.03667
   A16        2.18133  -0.00000   0.00000  -0.00001  -0.00001   2.18132
   A17        2.08084  -0.00000   0.00000  -0.00000  -0.00000   2.08084
   A18        2.02101   0.00000   0.00000   0.00001   0.00001   2.02102
   A19        2.24102  -0.00000   0.00000   0.00000   0.00000   2.24102
   A20        1.91062   0.00000   0.00000  -0.00000  -0.00000   1.91062
   A21        2.13151  -0.00000   0.00000  -0.00000  -0.00000   2.13151
   A22        1.54191  -0.00000   0.00000  -0.00001  -0.00001   1.54190
   A23        1.94684  -0.00000   0.00000  -0.00001  -0.00001   1.94682
   A24        1.90993   0.00000   0.00000   0.00001   0.00001   1.90993
   A25        1.93736   0.00000   0.00000   0.00000   0.00000   1.93736
   A26        1.95301   0.00000   0.00000  -0.00001  -0.00001   1.95300
   A27        1.95378  -0.00000   0.00000   0.00001   0.00001   1.95379
   A28        1.85961  -0.00000   0.00000  -0.00002  -0.00002   1.85959
   A29        1.87065   0.00000   0.00000  -0.00001  -0.00001   1.87064
   A30        1.88479   0.00000   0.00000   0.00002   0.00002   1.88481
   A31        2.08935   0.00000   0.00000   0.00001   0.00001   2.08936
   A32        2.09323  -0.00000   0.00000  -0.00003  -0.00003   2.09320
   A33        2.10057   0.00000   0.00000   0.00002   0.00002   2.10059
   A34        2.07600  -0.00000   0.00000   0.00001   0.00001   2.07601
   A35        2.10064   0.00000   0.00000   0.00006   0.00006   2.10070
   A36        2.10652  -0.00000   0.00000  -0.00007  -0.00007   2.10645
   A37        2.10569  -0.00000   0.00000  -0.00002  -0.00002   2.10567
   A38        2.07931   0.00000   0.00000   0.00000   0.00000   2.07932
   A39        2.09558   0.00000   0.00000   0.00001   0.00001   2.09559
   A40        1.94651   0.00000   0.00000   0.00006   0.00006   1.94657
   A41        1.93518  -0.00000   0.00000  -0.00008  -0.00008   1.93511
   A42        1.93945  -0.00000   0.00000   0.00001   0.00001   1.93946
   A43        1.89152   0.00000   0.00000  -0.00007  -0.00007   1.89146
   A44        1.88562   0.00000   0.00000   0.00011   0.00011   1.88573
   A45        1.86255   0.00000   0.00000  -0.00004  -0.00004   1.86251
   A46        1.95204  -0.00000   0.00000  -0.00001  -0.00001   1.95203
   A47        1.93743  -0.00000   0.00000   0.00002   0.00002   1.93744
   A48        1.93975   0.00000   0.00000   0.00001   0.00001   1.93975
   A49        1.86551   0.00000   0.00000  -0.00002  -0.00002   1.86549
   A50        1.88624   0.00000   0.00000  -0.00002  -0.00002   1.88621
   A51        1.87951   0.00000   0.00000   0.00004   0.00004   1.87954
    D1        1.65743  -0.00000   0.00000  -0.00009  -0.00009   1.65734
    D2       -1.40487   0.00000   0.00000   0.00002   0.00002  -1.40484
    D3       -0.16102   0.00000   0.00000   0.00004   0.00004  -0.16097
    D4        3.05987   0.00000   0.00000   0.00016   0.00016   3.06003
    D5       -2.98442   0.00000   0.00000   0.00010   0.00010  -2.98432
    D6        0.23646   0.00000   0.00000   0.00022   0.00022   0.23668
    D7        1.30535  -0.00000   0.00000  -0.00011  -0.00011   1.30523
    D8       -1.45690  -0.00000   0.00000  -0.00006  -0.00006  -1.45696
    D9       -2.84761   0.00000   0.00000  -0.00014  -0.00014  -2.84775
   D10        0.67333   0.00000   0.00000  -0.00008  -0.00008   0.67325
   D11       -0.76346   0.00000   0.00000  -0.00011  -0.00011  -0.76357
   D12        2.75748   0.00000   0.00000  -0.00006  -0.00006   2.75743
   D13        0.15669  -0.00000   0.00000  -0.00004  -0.00004   0.15665
   D14       -3.06226  -0.00000   0.00000  -0.00013  -0.00013  -3.06239
   D15       -1.64961   0.00001   0.00000   0.00014   0.00014  -1.64947
   D16        1.41462   0.00001   0.00000   0.00005   0.00005   1.41468
   D17        2.97766  -0.00000   0.00000  -0.00010  -0.00010   2.97756
   D18       -0.24129  -0.00000   0.00000  -0.00019  -0.00019  -0.24148
   D19       -3.08631  -0.00000   0.00000   0.00011   0.00011  -3.08620
   D20        0.07457  -0.00000   0.00000   0.00006   0.00006   0.07463
   D21       -0.02395  -0.00000   0.00000  -0.00000  -0.00000  -0.02395
   D22        3.13693  -0.00000   0.00000  -0.00005  -0.00005   3.13688
   D23       -0.19955  -0.00000   0.00000   0.00031   0.00031  -0.19924
   D24        1.87548  -0.00000   0.00000   0.00028   0.00028   1.87576
   D25       -2.28909  -0.00000   0.00000   0.00031   0.00031  -2.28878
   D26        3.02391   0.00000   0.00000   0.00042   0.00042   3.02434
   D27       -1.18424  -0.00000   0.00000   0.00040   0.00040  -1.18385
   D28        0.93437   0.00000   0.00000   0.00043   0.00043   0.93480
   D29       -2.80169  -0.00000   0.00000   0.00004   0.00004  -2.80166
   D30       -0.02106  -0.00000   0.00000   0.00000   0.00000  -0.02106
   D31        2.81527  -0.00000   0.00000  -0.00010  -0.00010   2.81517
   D32        0.02788   0.00000   0.00000  -0.00001  -0.00001   0.02786
   D33        0.17780  -0.00000   0.00000  -0.00077  -0.00077   0.17703
   D34       -2.98207  -0.00000   0.00000  -0.00072  -0.00072  -2.98279
   D35        0.01931  -0.00000   0.00000  -0.00017  -0.00017   0.01914
   D36       -3.13001  -0.00000   0.00000   0.00005   0.00005  -3.12996
   D37       -3.10381  -0.00000   0.00000  -0.00022  -0.00022  -3.10403
   D38        0.03005  -0.00000   0.00000   0.00000   0.00000   0.03006
   D39       -0.00536   0.00000   0.00000   0.00002   0.00002  -0.00535
   D40       -3.13854  -0.00000   0.00000  -0.00001  -0.00001  -3.13855
   D41        3.13914  -0.00000   0.00000  -0.00000  -0.00000   3.13914
   D42        0.00596  -0.00000   0.00000  -0.00003  -0.00003   0.00594
   D43        3.12222  -0.00000   0.00000   0.00001   0.00001   3.12223
   D44       -0.02210   0.00000   0.00000   0.00003   0.00003  -0.02208
   D45        0.00748   0.00000   0.00000   0.00001   0.00001   0.00749
   D46       -3.12633   0.00000   0.00000  -0.00001  -0.00001  -3.12634
   D47       -0.02782   0.00000   0.00000   0.00017   0.00017  -0.02765
   D48        3.12153   0.00000   0.00000  -0.00005  -0.00005   3.12148
   D49        3.12156   0.00000   0.00000   0.00014   0.00014   3.12170
   D50       -0.01228   0.00000   0.00000  -0.00008  -0.00008  -0.01236
   D51       -0.05951   0.00000   0.00000  -0.00007  -0.00007  -0.05957
   D52       -3.12302   0.00000   0.00000   0.00002   0.00002  -3.12300
   D53        3.07427   0.00000   0.00000  -0.00004  -0.00004   3.07423
   D54        0.01075   0.00000   0.00000   0.00005   0.00005   0.01080
   D55       -0.96614  -0.00000   0.00000  -0.00141  -0.00141  -0.96756
   D56        1.11576  -0.00000   0.00000  -0.00144  -0.00144   1.11432
   D57       -3.07601  -0.00000   0.00000  -0.00138  -0.00138  -3.07739
   D58        2.18328  -0.00000   0.00000  -0.00144  -0.00144   2.18184
   D59       -2.01800  -0.00000   0.00000  -0.00147  -0.00147  -2.01947
   D60        0.07341  -0.00000   0.00000  -0.00141  -0.00141   0.07200
   D61        0.10319  -0.00000   0.00000  -0.00332  -0.00332   0.09987
   D62        2.21285  -0.00000   0.00000  -0.00342  -0.00342   2.20944
   D63       -2.00189  -0.00000   0.00000  -0.00351  -0.00351  -2.00539
   D64       -3.04626  -0.00000   0.00000  -0.00309  -0.00309  -3.04936
   D65       -0.93660  -0.00000   0.00000  -0.00319  -0.00319  -0.93979
   D66        1.13184  -0.00000   0.00000  -0.00328  -0.00328   1.12856
         Item               Value     Threshold  Converged?
 Maximum Force            0.000011     0.000450     YES
 RMS     Force            0.000003     0.000300     YES
 Maximum Displacement     0.006516     0.001800     NO 
 RMS     Displacement     0.000986     0.001200     YES
 Predicted change in Energy=-3.413866D-08
 GradGradGradGradGradGradGradGradGradGradGradGradGradGradGradGradGradGrad

                          Input orientation:                          
 ---------------------------------------------------------------------
 Center     Atomic      Atomic             Coordinates (Angstroms)
 Number     Number       Type             X           Y           Z
 ---------------------------------------------------------------------
      1          6           0        4.812316   -2.119376    1.832029
      2          6           0        3.951334   -1.831521    2.919972
      3          6           0        4.030672   -0.545190    0.429323
      4          6           0        2.776570   -2.579644    3.036013
      5          6           0        2.420504    0.401127   -0.745761
      6          1           0        1.539014    0.348633   -1.374346
      7          6           0        3.037842    1.553282   -0.360545
      8          1           0        2.772310    2.572156   -0.606495
      9         16           0        4.419449    1.167768    0.641558
     10          7           0        2.989518   -0.775909   -0.275831
     11          8           0        1.861086   -2.316237    4.025540
     12          1           0        2.090731   -1.487794    4.462880
     13          6           0        4.239815   -0.688954    3.858915
     14          1           0        5.246763   -0.296181    3.699930
     15          1           0        3.548193    0.151674    3.706370
     16          1           0        4.173772   -0.995849    4.911152
     17          6           0        3.412315   -3.991502    1.159826
     18          6           0        2.480087   -3.649021    2.167827
     19          6           0        4.578381   -3.253657    1.022695
     20          1           0        5.289128   -3.500393    0.240663
     21          6           0        1.194107   -4.419442    2.319933
     22          1           0        0.548895   -3.974904    3.076655
     23          1           0        0.643941   -4.451864    1.372636
     24          1           0        1.388429   -5.460428    2.607835
     25          6           0        3.129247   -5.148957    0.234549
     26          1           0        2.936472   -6.075425    0.787561
     27          1           0        2.241756   -4.953766   -0.378979
     28          1           0        3.968387   -5.326636   -0.442442
     29          1           0        5.792463   -1.652135    1.814218
 ---------------------------------------------------------------------
                    Distance matrix (angstroms):
                    1          2          3          4          5
     1  C    0.000000
     2  C    1.416959   0.000000
     3  C    2.248692   2.804331   0.000000
     4  C    2.409500   1.397578   3.536468   0.000000
     5  C    4.326511   4.556945   2.206576   4.828415   0.000000
     6  H    5.204461   5.386420   3.203201   5.436691   1.083928
     7  C    4.630826   4.801369   2.452180   5.355926   1.362702
     8  H    5.667318   5.763543   3.517704   6.309431   2.203753
     9  S    3.518079   3.795528   1.769297   4.740839   2.551111
    10  N    3.093634   3.500366   1.278467   3.777184   1.389253
    11  O    3.682392   2.413787   4.558124   1.373557   5.519269
    12  H    3.837616   2.441425   4.573997   1.923138   5.550379
    13  C    2.546004   1.506750   3.438969   2.528431   5.069636
    14  H    2.646099   2.154934   3.498250   3.428825   5.313957
    15  H    3.204502   2.171176   3.384884   2.916313   4.599497
    16  H    3.339319   2.170858   4.506702   2.824310   6.084912
    17  C    2.432430   2.837988   3.576740   2.432610   4.889799
    18  C    2.809247   2.456338   3.880784   1.408977   4.989614
    19  C    1.412919   2.452615   2.826282   2.784649   4.597968
    20  H    2.160325   3.428342   3.217535   3.869717   4.942053
    21  C    4.315066   3.828796   5.160459   2.530181   5.842980
    22  H    4.813402   4.024330   5.558244   2.628866   6.104378
    23  H    4.798634   4.494362   5.255653   3.289398   5.585276
    24  H    4.846391   4.453636   5.990570   3.226327   6.831516
    25  C    3.816153   4.346574   4.695229   3.817584   5.680384
    26  H    4.501114   4.856732   5.648816   4.159518   6.675555
    27  H    4.419287   4.853262   4.825880   4.193406   5.370415
    28  H    4.021436   4.849944   4.860667   4.589776   5.940978
    29  H    1.085964   2.155140   2.499434   3.383588   4.705261
                    6          7          8          9         10
     6  H    0.000000
     7  C    2.173811   0.000000
     8  H    2.656063   1.081251   0.000000
     9  S    3.609952   1.749762   2.498601   0.000000
    10  N    2.138992   2.331231   3.371358   2.581508   0.000000
    11  O    6.030260   5.966212   6.795769   5.489522   4.706142
    12  H    6.144107   5.780189   6.530413   5.203598   4.875446
    13  C    5.979793   4.927089   5.720865   3.719015   4.320525
    14  H    6.317552   4.978685   5.735466   3.490163   4.596953
    15  H    5.467107   4.331831   5.006149   3.344340   4.126797
    16  H    6.946730   5.964830   6.718570   4.792810   5.325000
    17  C    5.363586   5.761630   6.827232   5.282138   3.546817
    18  C    5.423453   5.810999   6.818013   5.412216   3.806017
    19  C    5.287726   5.233858   6.313180   4.440667   3.217125
    20  H    5.611292   5.565013   6.627813   4.765373   3.602470
    21  C    6.041622   6.801305   7.741909   6.666085   4.820459
    22  H    6.283686   6.969221   7.834102   6.881712   5.237306
    23  H    5.602842   6.693015   7.601564   6.809493   4.661740
    24  H    7.044546   7.792558   8.761818   7.548927   5.729200
    25  C    5.944819   6.729227   7.774982   6.459976   4.404948
    26  H    6.920640   7.715283   8.760765   7.394889   5.405413
    27  H    5.440591   6.555590   7.548029   6.577006   4.245501
    28  H    6.243314   6.943046   7.990521   6.599681   4.657796
    29  H    5.679950   4.753128   5.729382   3.348455   3.604522
                   11         12         13         14         15
    11  O    0.000000
    12  H    0.964532   0.000000
    13  C    2.886896   2.370966   0.000000
    14  H    3.955940   3.458695   1.092470   0.000000
    15  H    3.006458   2.320421   1.099212   1.756632   0.000000
    16  H    2.806466   2.186783   1.098066   1.762924   1.777543
    17  C    3.664033   4.350322   4.344728   4.844866   4.865106
    18  C    2.368665   3.176439   3.836459   4.609053   4.237128
    19  C    4.156866   4.597994   3.838812   4.044872   4.456420
    20  H    5.242041   5.666341   4.700745   4.715433   5.327249
    21  C    2.788804   3.740417   5.055823   5.943879   5.325320
    22  H    2.318060   3.237992   5.003228   5.999286   5.140134
    23  H    3.616662   4.519792   5.768136   6.623592   5.922293
    24  H    3.481267   4.440297   5.697593   6.538261   6.112859
    25  C    4.899403   5.688709   5.853291   6.327889   6.350256
    26  H    5.076658   5.938822   6.336087   6.871609   6.904377
    27  H    5.147937   5.956456   6.335662   6.881909   6.668011
    28  H    5.784988   6.505727   6.331149   6.640706   6.884845
    29  H    4.559244   4.554694   2.742120   2.385857   3.445391
                   16         17         18         19         20
    16  H    0.000000
    17  C    4.860679   0.000000
    18  C    4.175371   1.415064   0.000000
    19  C    4.514588   1.386698   2.422907   0.000000
    20  H    5.415739   2.146737   3.409804   1.085179   0.000000
    21  C    5.226262   2.539572   1.506794   3.807255   4.683717
    22  H    5.037845   3.445821   2.159091   4.579925   5.544170
    23  H    6.076582   2.814447   2.155996   4.127708   4.874876
    24  H    5.744203   2.889738   2.160212   4.190263   4.965953
    25  C    6.341132   1.508631   2.531557   2.512633   2.717146
    26  H    6.658604   2.169734   2.828579   3.273153   3.530564
    27  H    6.883551   2.159649   2.871478   3.211679   3.432597
    28  H    6.889040   2.158487   3.441357   2.610740   2.355027
    29  H    3.555541   3.400878   3.883867   2.159947   2.479008
                   21         22         23         24         25
    21  C    0.000000
    22  H    1.089285   0.000000
    23  H    1.095950   1.772063   0.000000
    24  H    1.097406   1.769574   1.759881   0.000000
    25  C    2.936969   4.014248   2.820979   2.959721   0.000000
    26  H    2.850662   3.918248   2.869487   2.467398   1.096051
    27  H    2.944010   3.970561   2.423442   3.147369   1.096430
    28  H    4.018749   5.089612   3.887373   3.997283   1.092723
    29  H    5.390604   5.872308   5.877138   5.876090   4.670742
                   26         27         28         29
    26  H    0.000000
    27  H    1.761127   0.000000
    28  H    1.771565   1.767573   0.000000
    29  H    5.364346   5.321503   4.682064   0.000000
 Symmetry turned off by external request.
 Stoichiometry    C12H14NOS(2)
 Framework group  C1[X(C12H14NOS)]
 Deg. of freedom    81
 Full point group                 C1      NOp   1
 Rotational constants (GHZ):           0.8115267           0.3830230           0.3336033
 Standard basis: 6-31G(d,p) (6D, 7F)
   299 basis functions,   542 primitive gaussians,   299 cartesian basis functions
    59 alpha electrons       58 beta electrons
       nuclear repulsion energy      1077.7960603265 Hartrees.
 NAtoms=   29 NActive=   29 NUniq=   29 SFac= 1.00D+00 NAtFMM=   60 NAOKFM=F Big=F
 Integral buffers will be    131072 words long.
 Raffenetti 2 integral format.
 Two-electron integral symmetry is turned off.
 Nuclear repulsion after empirical dispersion term =     1077.7679590716 Hartrees.
 One-electron integrals computed using PRISM.
 NBasis=   299 RedAO= T EigKep=  4.02D-04  NBF=   299
 NBsUse=   299 1.00D-06 EigRej= -1.00D+00 NBFU=   299
 Initial guess from the checkpoint file:  "/scratch/jcuzick/job_48780647/Gau-2329488.chk"
 B after Tr=     0.000170   -0.000134   -0.000398
         Rot=    1.000000    0.000016    0.000028    0.000002 Ang=   0.00 deg.
 Initial guess <Sx>= 0.0000 <Sy>= 0.0000 <Sz>= 0.5000 <S**2>= 0.7751 S= 0.5125
 Requested convergence on RMS density matrix=1.00D-08 within 128 cycles.
 Requested convergence on MAX density matrix=1.00D-06.
 Requested convergence on             energy=1.00D-06.
 No special actions if energy rises.
 SCF Done:  E(UB3LYP) =  -993.824898720     A.U. after    7 cycles
            NFock=  7  Conv=0.45D-08     -V/T= 2.0070
 <Sx>= 0.0000 <Sy>= 0.0000 <Sz>= 0.5000 <S**2>= 0.7751 S= 0.5125
 <L.S>= 0.000000000000E+00
 Annihilation of the first spin contaminant:
 S**2 before annihilation     0.7751,   after     0.7505
 Calling FoFJK, ICntrl=      2127 FMM=F ISym2X=0 I1Cent= 0 IOpClX= 1 NMat=1 NMatS=1 NMatT=0.
 -------------------------------------------------------------------
 Center     Atomic                   Forces (Hartrees/Bohr)
 Number     Number              X              Y              Z
 -------------------------------------------------------------------
      1        6          -0.000000072   -0.000003499   -0.000000861
      2        6           0.000002685   -0.000000368   -0.000001057
      3        6          -0.000001240   -0.000000356   -0.000000199
      4        6          -0.000000877   -0.000001610   -0.000001080
      5        6           0.000000193   -0.000000096   -0.000000452
      6        1          -0.000000270    0.000000276    0.000000311
      7        6          -0.000000152    0.000000744   -0.000000650
      8        1           0.000000094    0.000000051    0.000000022
      9       16           0.000001952   -0.000000795    0.000001096
     10        7          -0.000000329    0.000000124    0.000001436
     11        8           0.000000473    0.000000783    0.000000667
     12        1           0.000000728    0.000000211    0.000000431
     13        6          -0.000000535    0.000000420   -0.000001023
     14        1           0.000000657   -0.000000409   -0.000000227
     15        1           0.000001656    0.000000559   -0.000001008
     16        1           0.000000364   -0.000000251   -0.000000127
     17        6          -0.000000408   -0.000000224    0.000000441
     18        6           0.000000358    0.000001203    0.000000091
     19        6           0.000000903    0.000000855    0.000001307
     20        1          -0.000000632   -0.000000092   -0.000000636
     21        6          -0.000000224    0.000000418    0.000000284
     22        1           0.000000389   -0.000000007    0.000001086
     23        1          -0.000000474    0.000000879    0.000000709
     24        1          -0.000000270    0.000000077   -0.000000212
     25        6          -0.000000768    0.000000206    0.000000190
     26        1          -0.000000405   -0.000000162    0.000000080
     27        1          -0.000001213   -0.000000222    0.000000603
     28        1          -0.000001126    0.000000151   -0.000000373
     29        1          -0.000001456    0.000001133   -0.000000851
 -------------------------------------------------------------------
 Cartesian Forces:  Max     0.000003499 RMS     0.000000852

 GradGradGradGradGradGradGradGradGradGradGradGradGradGradGradGradGradGrad
 Berny optimization.
 FormGI is forming the generalized inverse of G from B-inverse, IUseBI=4.
 Internal  Forces:  Max     0.000002538 RMS     0.000000665
 Search for a saddle point.
 Step number  14 out of a maximum of  157
 All quantities printed in internal units (Hartrees-Bohrs-Radians)
 Swapping is turned off.
 Update second derivatives using D2CorX and points    2    3    4    7    8
                                                      9   10   11   12   13
                                                     14
 ITU=  0  0  0  0  0  0  0  0  0  0  0  0  0  0
     Eigenvalues ---   -0.02047   0.00054   0.00080   0.00124   0.00246
     Eigenvalues ---    0.00313   0.00370   0.00936   0.01288   0.01431
     Eigenvalues ---    0.01467   0.01523   0.01709   0.01807   0.01927
     Eigenvalues ---    0.02549   0.03048   0.03484   0.03864   0.03913
     Eigenvalues ---    0.05127   0.05448   0.05766   0.05822   0.05861
     Eigenvalues ---    0.05917   0.06017   0.06072   0.06759   0.07537
     Eigenvalues ---    0.09208   0.11204   0.11943   0.12086   0.12194
     Eigenvalues ---    0.12234   0.12484   0.14477   0.14512   0.14596
     Eigenvalues ---    0.14705   0.14891   0.15076   0.15812   0.16952
     Eigenvalues ---    0.18979   0.19081   0.19339   0.20141   0.20552
     Eigenvalues ---    0.22143   0.23226   0.25033   0.27187   0.30127
     Eigenvalues ---    0.31349   0.32198   0.32560   0.32938   0.33206
     Eigenvalues ---    0.33463   0.33677   0.33957   0.34590   0.34622
     Eigenvalues ---    0.35103   0.35253   0.36056   0.36576   0.37035
     Eigenvalues ---    0.37379   0.38470   0.39694   0.41121   0.42939
     Eigenvalues ---    0.45277   0.48417   0.48620   0.51406   0.53558
     Eigenvalues ---    0.58261
 Eigenvectors required to have negative eigenvalues:
                          R2        D18       D6        D17       D5
   1                    0.89004   0.16323  -0.15161   0.14544  -0.14237
                          D3        D13       D4        A1        D14
   1                    0.11683  -0.11562   0.10760  -0.10102  -0.09783
 RFO step:  Lambda0=2.909467806D-12 Lambda=-1.07550854D-08.
 Linear search not attempted -- option 19 set.
 Iteration  1 RMS(Cart)=  0.00052050 RMS(Int)=  0.00000022
 Iteration  2 RMS(Cart)=  0.00000023 RMS(Int)=  0.00000000
 Variable       Old X    -DE/DX   Delta X   Delta X   Delta X     New X
                                 (Linear)    (Quad)   (Total)
    R1        2.67766  -0.00000   0.00000  -0.00001  -0.00001   2.67766
    R2        4.24941  -0.00000   0.00000   0.00002   0.00002   4.24943
    R3        2.67003  -0.00000   0.00000  -0.00001  -0.00001   2.67002
    R4        2.05217  -0.00000   0.00000  -0.00000  -0.00000   2.05217
    R5        2.64104   0.00000   0.00000   0.00000   0.00000   2.64104
    R6        2.84734  -0.00000   0.00000  -0.00000  -0.00000   2.84734
    R7        3.34349  -0.00000   0.00000  -0.00000  -0.00000   3.34349
    R8        2.41595  -0.00000   0.00000  -0.00000  -0.00000   2.41595
    R9        2.59565   0.00000   0.00000  -0.00000  -0.00000   2.59565
   R10        2.66258  -0.00000   0.00000  -0.00000  -0.00000   2.66258
   R11        2.04833   0.00000   0.00000   0.00000   0.00000   2.04833
   R12        2.57513   0.00000   0.00000   0.00000   0.00000   2.57514
   R13        2.62531   0.00000   0.00000   0.00000   0.00000   2.62531
   R14        2.04327   0.00000   0.00000  -0.00000  -0.00000   2.04327
   R15        3.30657   0.00000   0.00000   0.00000   0.00000   3.30658
   R16        1.82270   0.00000   0.00000  -0.00000  -0.00000   1.82270
   R17        2.06447  -0.00000   0.00000   0.00000   0.00000   2.06447
   R18        2.07721   0.00000   0.00000  -0.00000  -0.00000   2.07721
   R19        2.07504   0.00000   0.00000   0.00000   0.00000   2.07504
   R20        2.67408  -0.00000   0.00000   0.00000   0.00000   2.67408
   R21        2.62048   0.00000   0.00000   0.00000   0.00000   2.62048
   R22        2.85090  -0.00000   0.00000  -0.00000  -0.00000   2.85090
   R23        2.84743  -0.00000   0.00000  -0.00000  -0.00000   2.84743
   R24        2.05069  -0.00000   0.00000   0.00000   0.00000   2.05069
   R25        2.05845  -0.00000   0.00000  -0.00001  -0.00001   2.05845
   R26        2.07105  -0.00000   0.00000   0.00002   0.00002   2.07106
   R27        2.07380   0.00000   0.00000  -0.00001  -0.00001   2.07378
   R28        2.07124   0.00000   0.00000   0.00001   0.00001   2.07124
   R29        2.07195   0.00000   0.00000  -0.00000  -0.00000   2.07195
   R30        2.06495  -0.00000   0.00000  -0.00000  -0.00000   2.06495
    A1        1.69665  -0.00000   0.00000  -0.00003  -0.00003   1.69662
    A2        2.09704   0.00000   0.00000   0.00001   0.00001   2.09705
    A3        2.06418  -0.00000   0.00000  -0.00000  -0.00000   2.06417
    A4        1.71846   0.00000   0.00000   0.00004   0.00004   1.71850
    A5        1.57310  -0.00000   0.00000  -0.00005  -0.00005   1.57304
    A6        2.07767   0.00000   0.00000   0.00001   0.00001   2.07768
    A7        2.05529   0.00000   0.00000   0.00000   0.00000   2.05529
    A8        2.11317  -0.00000   0.00000  -0.00001  -0.00001   2.11316
    A9        2.11193   0.00000   0.00000   0.00001   0.00001   2.11194
   A10        2.12533  -0.00000   0.00000   0.00000   0.00000   2.12533
   A11        2.09532   0.00000   0.00000   0.00004   0.00004   2.09536
   A12        2.00405   0.00000   0.00000   0.00001   0.00001   2.00406
   A13        2.11462  -0.00000   0.00000  -0.00000  -0.00000   2.11461
   A14        2.13175  -0.00000   0.00000  -0.00001  -0.00001   2.13174
   A15        2.03667   0.00000   0.00000   0.00001   0.00001   2.03668
   A16        2.18132  -0.00000   0.00000  -0.00000  -0.00000   2.18132
   A17        2.08084  -0.00000   0.00000   0.00000   0.00000   2.08084
   A18        2.02102   0.00000   0.00000   0.00000   0.00000   2.02102
   A19        2.24102  -0.00000   0.00000  -0.00000  -0.00000   2.24102
   A20        1.91062  -0.00000   0.00000  -0.00000  -0.00000   1.91062
   A21        2.13151   0.00000   0.00000   0.00000   0.00000   2.13152
   A22        1.54190  -0.00000   0.00000  -0.00000  -0.00000   1.54190
   A23        1.94682  -0.00000   0.00000  -0.00000  -0.00000   1.94682
   A24        1.90993   0.00000   0.00000  -0.00000  -0.00000   1.90993
   A25        1.93736   0.00000   0.00000  -0.00000  -0.00000   1.93736
   A26        1.95300   0.00000   0.00000  -0.00001  -0.00001   1.95299
   A27        1.95379  -0.00000   0.00000   0.00001   0.00001   1.95380
   A28        1.85959  -0.00000   0.00000   0.00000   0.00000   1.85960
   A29        1.87064   0.00000   0.00000  -0.00001  -0.00001   1.87063
   A30        1.88481   0.00000   0.00000   0.00001   0.00001   1.88482
   A31        2.08936   0.00000   0.00000   0.00000   0.00000   2.08937
   A32        2.09320  -0.00000   0.00000  -0.00001  -0.00001   2.09319
   A33        2.10059   0.00000   0.00000   0.00001   0.00001   2.10060
   A34        2.07601  -0.00000   0.00000   0.00000   0.00000   2.07601
   A35        2.10070   0.00000   0.00000   0.00002   0.00002   2.10072
   A36        2.10645  -0.00000   0.00000  -0.00002  -0.00002   2.10643
   A37        2.10567  -0.00000   0.00000  -0.00000  -0.00000   2.10567
   A38        2.07932   0.00000   0.00000   0.00000   0.00000   2.07932
   A39        2.09559   0.00000   0.00000   0.00000   0.00000   2.09559
   A40        1.94657   0.00000   0.00000   0.00002   0.00002   1.94659
   A41        1.93511  -0.00000   0.00000  -0.00003  -0.00003   1.93508
   A42        1.93946   0.00000   0.00000   0.00000   0.00000   1.93947
   A43        1.89146   0.00000   0.00000  -0.00003  -0.00003   1.89143
   A44        1.88573  -0.00000   0.00000   0.00004   0.00004   1.88577
   A45        1.86251   0.00000   0.00000  -0.00001  -0.00001   1.86249
   A46        1.95203   0.00000   0.00000  -0.00001  -0.00001   1.95202
   A47        1.93744   0.00000   0.00000   0.00002   0.00002   1.93746
   A48        1.93975  -0.00000   0.00000   0.00000   0.00000   1.93976
   A49        1.86549  -0.00000   0.00000  -0.00001  -0.00001   1.86547
   A50        1.88621  -0.00000   0.00000  -0.00001  -0.00001   1.88620
   A51        1.87954   0.00000   0.00000   0.00002   0.00002   1.87956
    D1        1.65734   0.00000   0.00000   0.00007   0.00007   1.65741
    D2       -1.40484   0.00000   0.00000   0.00015   0.00015  -1.40469
    D3       -0.16097   0.00000   0.00000   0.00003   0.00003  -0.16094
    D4        3.06003   0.00000   0.00000   0.00011   0.00011   3.06014
    D5       -2.98432  -0.00000   0.00000  -0.00001  -0.00001  -2.98433
    D6        0.23668  -0.00000   0.00000   0.00007   0.00007   0.23675
    D7        1.30523   0.00000   0.00000   0.00066   0.00066   1.30589
    D8       -1.45696  -0.00000   0.00000   0.00051   0.00051  -1.45645
    D9       -2.84775   0.00000   0.00000   0.00067   0.00067  -2.84708
   D10        0.67325   0.00000   0.00000   0.00052   0.00052   0.67377
   D11       -0.76357   0.00000   0.00000   0.00067   0.00067  -0.76289
   D12        2.75743   0.00000   0.00000   0.00052   0.00052   2.75795
   D13        0.15665  -0.00000   0.00000  -0.00006  -0.00006   0.15659
   D14       -3.06239  -0.00000   0.00000  -0.00005  -0.00005  -3.06243
   D15       -1.64947   0.00000   0.00000  -0.00006  -0.00006  -1.64953
   D16        1.41468   0.00000   0.00000  -0.00004  -0.00004   1.41463
   D17        2.97756   0.00000   0.00000  -0.00002  -0.00002   2.97754
   D18       -0.24148   0.00000   0.00000  -0.00001  -0.00001  -0.24148
   D19       -3.08620   0.00000   0.00000   0.00006   0.00006  -3.08613
   D20        0.07463   0.00000   0.00000   0.00005   0.00005   0.07468
   D21       -0.02395  -0.00000   0.00000  -0.00002  -0.00002  -0.02397
   D22        3.13688  -0.00000   0.00000  -0.00004  -0.00004   3.13684
   D23       -0.19924  -0.00000   0.00000  -0.00038  -0.00038  -0.19963
   D24        1.87576  -0.00000   0.00000  -0.00039  -0.00039   1.87537
   D25       -2.28878  -0.00000   0.00000  -0.00037  -0.00037  -2.28915
   D26        3.02434  -0.00000   0.00000  -0.00030  -0.00030   3.02404
   D27       -1.18385  -0.00000   0.00000  -0.00030  -0.00030  -1.18415
   D28        0.93480  -0.00000   0.00000  -0.00029  -0.00029   0.93451
   D29       -2.80166  -0.00000   0.00000  -0.00015  -0.00015  -2.80180
   D30       -0.02106  -0.00000   0.00000   0.00000   0.00000  -0.02106
   D31        2.81517  -0.00000   0.00000   0.00013   0.00013   2.81530
   D32        0.02786   0.00000   0.00000  -0.00001  -0.00001   0.02786
   D33        0.17703  -0.00000   0.00000  -0.00016  -0.00016   0.17687
   D34       -2.98279  -0.00000   0.00000  -0.00014  -0.00014  -2.98293
   D35        0.01914  -0.00000   0.00000  -0.00010  -0.00010   0.01904
   D36       -3.12996  -0.00000   0.00000  -0.00001  -0.00001  -3.12997
   D37       -3.10403  -0.00000   0.00000  -0.00011  -0.00011  -3.10414
   D38        0.03006  -0.00000   0.00000  -0.00002  -0.00002   0.03003
   D39       -0.00535  -0.00000   0.00000   0.00000   0.00000  -0.00534
   D40       -3.13855  -0.00000   0.00000  -0.00000  -0.00000  -3.13855
   D41        3.13914   0.00000   0.00000   0.00001   0.00001   3.13915
   D42        0.00594   0.00000   0.00000   0.00000   0.00000   0.00594
   D43        3.12223  -0.00000   0.00000   0.00001   0.00001   3.12224
   D44       -0.02208  -0.00000   0.00000   0.00000   0.00000  -0.02207
   D45        0.00749   0.00000   0.00000  -0.00000  -0.00000   0.00749
   D46       -3.12634   0.00000   0.00000  -0.00001  -0.00001  -3.12635
   D47       -0.02765   0.00000   0.00000   0.00007   0.00007  -0.02758
   D48        3.12148  -0.00000   0.00000  -0.00002  -0.00002   3.12146
   D49        3.12170   0.00000   0.00000   0.00005   0.00005   3.12175
   D50       -0.01236   0.00000   0.00000  -0.00004  -0.00004  -0.01240
   D51       -0.05957   0.00000   0.00000   0.00001   0.00001  -0.05956
   D52       -3.12300   0.00000   0.00000  -0.00000  -0.00000  -3.12301
   D53        3.07423   0.00000   0.00000   0.00003   0.00003   3.07426
   D54        0.01080   0.00000   0.00000   0.00002   0.00002   0.01082
   D55       -0.96756  -0.00000   0.00000  -0.00063  -0.00063  -0.96818
   D56        1.11432  -0.00000   0.00000  -0.00064  -0.00064   1.11368
   D57       -3.07739  -0.00000   0.00000  -0.00061  -0.00061  -3.07800
   D58        2.18184  -0.00000   0.00000  -0.00065  -0.00065   2.18119
   D59       -2.01947  -0.00000   0.00000  -0.00066  -0.00066  -2.02013
   D60        0.07200  -0.00000   0.00000  -0.00063  -0.00063   0.07138
   D61        0.09987  -0.00000   0.00000  -0.00128  -0.00128   0.09859
   D62        2.20944  -0.00000   0.00000  -0.00132  -0.00132   2.20812
   D63       -2.00539  -0.00000   0.00000  -0.00135  -0.00135  -2.00675
   D64       -3.04936  -0.00000   0.00000  -0.00119  -0.00119  -3.05055
   D65       -0.93979  -0.00000   0.00000  -0.00123  -0.00123  -0.94103
   D66        1.12856  -0.00000   0.00000  -0.00126  -0.00126   1.12730
         Item               Value     Threshold  Converged?
 Maximum Force            0.000003     0.000450     YES
 RMS     Force            0.000001     0.000300     YES
 Maximum Displacement     0.002241     0.001800     NO 
 RMS     Displacement     0.000520     0.001200     YES
 Predicted change in Energy=-5.376088D-09
 Optimization completed on the basis of negligible forces.
    -- Stationary point found.
                           ----------------------------
                           !   Optimized Parameters   !
                           ! (Angstroms and Degrees)  !
 --------------------------                            --------------------------
 ! Name  Definition              Value          Derivative Info.                !
 --------------------------------------------------------------------------------
 ! R1    R(1,2)                  1.417          -DE/DX =    0.0                 !
 ! R2    R(1,3)                  2.2487         -DE/DX =    0.0                 !
 ! R3    R(1,19)                 1.4129         -DE/DX =    0.0                 !
 ! R4    R(1,29)                 1.086          -DE/DX =    0.0                 !
 ! R5    R(2,4)                  1.3976         -DE/DX =    0.0                 !
 ! R6    R(2,13)                 1.5067         -DE/DX =    0.0                 !
 ! R7    R(3,9)                  1.7693         -DE/DX =    0.0                 !
 ! R8    R(3,10)                 1.2785         -DE/DX =    0.0                 !
 ! R9    R(4,11)                 1.3736         -DE/DX =    0.0                 !
 ! R10   R(4,18)                 1.409          -DE/DX =    0.0                 !
 ! R11   R(5,6)                  1.0839         -DE/DX =    0.0                 !
 ! R12   R(5,7)                  1.3627         -DE/DX =    0.0                 !
 ! R13   R(5,10)                 1.3893         -DE/DX =    0.0                 !
 ! R14   R(7,8)                  1.0813         -DE/DX =    0.0                 !
 ! R15   R(7,9)                  1.7498         -DE/DX =    0.0                 !
 ! R16   R(11,12)                0.9645         -DE/DX =    0.0                 !
 ! R17   R(13,14)                1.0925         -DE/DX =    0.0                 !
 ! R18   R(13,15)                1.0992         -DE/DX =    0.0                 !
 ! R19   R(13,16)                1.0981         -DE/DX =    0.0                 !
 ! R20   R(17,18)                1.4151         -DE/DX =    0.0                 !
 ! R21   R(17,19)                1.3867         -DE/DX =    0.0                 !
 ! R22   R(17,25)                1.5086         -DE/DX =    0.0                 !
 ! R23   R(18,21)                1.5068         -DE/DX =    0.0                 !
 ! R24   R(19,20)                1.0852         -DE/DX =    0.0                 !
 ! R25   R(21,22)                1.0893         -DE/DX =    0.0                 !
 ! R26   R(21,23)                1.0959         -DE/DX =    0.0                 !
 ! R27   R(21,24)                1.0974         -DE/DX =    0.0                 !
 ! R28   R(25,26)                1.0961         -DE/DX =    0.0                 !
 ! R29   R(25,27)                1.0964         -DE/DX =    0.0                 !
 ! R30   R(25,28)                1.0927         -DE/DX =    0.0                 !
 ! A1    A(2,1,3)               97.2108         -DE/DX =    0.0                 !
 ! A2    A(2,1,19)             120.1515         -DE/DX =    0.0                 !
 ! A3    A(2,1,29)             118.2686         -DE/DX =    0.0                 !
 ! A4    A(3,1,19)              98.4605         -DE/DX =    0.0                 !
 ! A5    A(3,1,29)              90.1318         -DE/DX =    0.0                 !
 ! A6    A(19,1,29)            119.0417         -DE/DX =    0.0                 !
 ! A7    A(1,2,4)              117.7593         -DE/DX =    0.0                 !
 ! A8    A(1,2,13)             121.076          -DE/DX =    0.0                 !
 ! A9    A(4,2,13)             121.0049         -DE/DX =    0.0                 !
 ! A10   A(1,3,9)              121.7725         -DE/DX =    0.0                 !
 ! A11   A(1,3,10)             120.053          -DE/DX =    0.0                 !
 ! A12   A(9,3,10)             114.8238         -DE/DX =    0.0                 !
 ! A13   A(2,4,11)             121.1585         -DE/DX =    0.0                 !
 ! A14   A(2,4,18)             122.1403         -DE/DX =    0.0                 !
 ! A15   A(11,4,18)            116.6926         -DE/DX =    0.0                 !
 ! A16   A(6,5,7)              124.9804         -DE/DX =    0.0                 !
 ! A17   A(6,5,10)             119.2235         -DE/DX =    0.0                 !
 ! A18   A(7,5,10)             115.7959         -DE/DX =    0.0                 !
 ! A19   A(5,7,8)              128.401          -DE/DX =    0.0                 !
 ! A20   A(5,7,9)              109.4705         -DE/DX =    0.0                 !
 ! A21   A(8,7,9)              122.1268         -DE/DX =    0.0                 !
 ! A22   A(3,9,7)               88.3443         -DE/DX =    0.0                 !
 ! A23   A(3,10,5)             111.5448         -DE/DX =    0.0                 !
 ! A24   A(4,11,12)            109.4312         -DE/DX =    0.0                 !
 ! A25   A(2,13,14)            111.0028         -DE/DX =    0.0                 !
 ! A26   A(2,13,15)            111.8987         -DE/DX =    0.0                 !
 ! A27   A(2,13,16)            111.944          -DE/DX =    0.0                 !
 ! A28   A(14,13,15)           106.5467         -DE/DX =    0.0                 !
 ! A29   A(14,13,16)           107.1799         -DE/DX =    0.0                 !
 ! A30   A(15,13,16)           107.9918         -DE/DX =    0.0                 !
 ! A31   A(18,17,19)           119.7117         -DE/DX =    0.0                 !
 ! A32   A(18,17,25)           119.9318         -DE/DX =    0.0                 !
 ! A33   A(19,17,25)           120.355          -DE/DX =    0.0                 !
 ! A34   A(4,18,17)            118.9466         -DE/DX =    0.0                 !
 ! A35   A(4,18,21)            120.3611         -DE/DX =    0.0                 !
 ! A36   A(17,18,21)           120.6909         -DE/DX =    0.0                 !
 ! A37   A(1,19,17)            120.6463         -DE/DX =    0.0                 !
 ! A38   A(1,19,20)            119.136          -DE/DX =    0.0                 !
 ! A39   A(17,19,20)           120.0685         -DE/DX =    0.0                 !
 ! A40   A(18,21,22)           111.5301         -DE/DX =    0.0                 !
 ! A41   A(18,21,23)           110.8734         -DE/DX =    0.0                 !
 ! A42   A(18,21,24)           111.1229         -DE/DX =    0.0                 !
 ! A43   A(22,21,23)           108.3725         -DE/DX =    0.0                 !
 ! A44   A(22,21,24)           108.0444         -DE/DX =    0.0                 !
 ! A45   A(23,21,24)           106.7139         -DE/DX =    0.0                 !
 ! A46   A(17,25,26)           111.8431         -DE/DX =    0.0                 !
 ! A47   A(17,25,27)           111.0074         -DE/DX =    0.0                 !
 ! A48   A(17,25,28)           111.1398         -DE/DX =    0.0                 !
 ! A49   A(26,25,27)           106.8846         -DE/DX =    0.0                 !
 ! A50   A(26,25,28)           108.0721         -DE/DX =    0.0                 !
 ! A51   A(27,25,28)           107.6898         -DE/DX =    0.0                 !
 ! D1    D(3,1,2,4)             94.9586         -DE/DX =    0.0                 !
 ! D2    D(3,1,2,13)           -80.4917         -DE/DX =    0.0                 !
 ! D3    D(19,1,2,4)            -9.2232         -DE/DX =    0.0                 !
 ! D4    D(19,1,2,13)          175.3266         -DE/DX =    0.0                 !
 ! D5    D(29,1,2,4)          -170.989          -DE/DX =    0.0                 !
 ! D6    D(29,1,2,13)           13.5607         -DE/DX =    0.0                 !
 ! D7    D(2,1,3,9)             74.7844         -DE/DX =    0.0                 !
 ! D8    D(2,1,3,10)           -83.4774         -DE/DX =    0.0                 !
 ! D9    D(19,1,3,9)          -163.164          -DE/DX =    0.0                 !
 ! D10   D(19,1,3,10)           38.5741         -DE/DX =    0.0                 !
 ! D11   D(29,1,3,9)           -43.7491         -DE/DX =    0.0                 !
 ! D12   D(29,1,3,10)          157.989          -DE/DX =    0.0                 !
 ! D13   D(2,1,19,17)            8.9755         -DE/DX =    0.0                 !
 ! D14   D(2,1,19,20)         -175.4617         -DE/DX =    0.0                 !
 ! D15   D(3,1,19,17)          -94.5078         -DE/DX =    0.0                 !
 ! D16   D(3,1,19,20)           81.055          -DE/DX =    0.0                 !
 ! D17   D(29,1,19,17)         170.6016         -DE/DX =    0.0                 !
 ! D18   D(29,1,19,20)         -13.8356         -DE/DX =    0.0                 !
 ! D19   D(1,2,4,11)          -176.826          -DE/DX =    0.0                 !
 ! D20   D(1,2,4,18)             4.276          -DE/DX =    0.0                 !
 ! D21   D(13,2,4,11)           -1.3723         -DE/DX =    0.0                 !
 ! D22   D(13,2,4,18)          179.7297         -DE/DX =    0.0                 !
 ! D23   D(1,2,13,14)          -11.4159         -DE/DX =    0.0                 !
 ! D24   D(1,2,13,15)          107.473          -DE/DX =    0.0                 !
 ! D25   D(1,2,13,16)         -131.1374         -DE/DX =    0.0                 !
 ! D26   D(4,2,13,14)          173.2817         -DE/DX =    0.0                 !
 ! D27   D(4,2,13,15)          -67.8294         -DE/DX =    0.0                 !
 ! D28   D(4,2,13,16)           53.5602         -DE/DX =    0.0                 !
 ! D29   D(1,3,9,7)           -160.523          -DE/DX =    0.0                 !
 ! D30   D(10,3,9,7)            -1.2068         -DE/DX =    0.0                 !
 ! D31   D(1,3,10,5)           161.2974         -DE/DX =    0.0                 !
 ! D32   D(9,3,10,5)             1.5964         -DE/DX =    0.0                 !
 ! D33   D(2,4,11,12)           10.1431         -DE/DX =    0.0                 !
 ! D34   D(18,4,11,12)        -170.9014         -DE/DX =    0.0                 !
 ! D35   D(2,4,18,17)            1.0967         -DE/DX =    0.0                 !
 ! D36   D(2,4,18,21)         -179.3334         -DE/DX =    0.0                 !
 ! D37   D(11,4,18,17)        -177.8478         -DE/DX =    0.0                 !
 ! D38   D(11,4,18,21)           1.7221         -DE/DX =    0.0                 !
 ! D39   D(6,5,7,8)             -0.3063         -DE/DX =    0.0                 !
 ! D40   D(6,5,7,9)           -179.8256         -DE/DX =    0.0                 !
 ! D41   D(10,5,7,8)           179.8595         -DE/DX =    0.0                 !
 ! D42   D(10,5,7,9)             0.3401         -DE/DX =    0.0                 !
 ! D43   D(6,5,10,3)           178.8906         -DE/DX =    0.0                 !
 ! D44   D(7,5,10,3)            -1.265          -DE/DX =    0.0                 !
 ! D45   D(5,7,9,3)              0.4291         -DE/DX =    0.0                 !
 ! D46   D(8,7,9,3)           -179.1261         -DE/DX =    0.0                 !
 ! D47   D(19,17,18,4)          -1.5839         -DE/DX =    0.0                 !
 ! D48   D(19,17,18,21)        178.8476         -DE/DX =    0.0                 !
 ! D49   D(25,17,18,4)         178.8604         -DE/DX =    0.0                 !
 ! D50   D(25,17,18,21)         -0.708          -DE/DX =    0.0                 !
 ! D51   D(18,17,19,1)          -3.4134         -DE/DX =    0.0                 !
 ! D52   D(18,17,19,20)       -178.9348         -DE/DX =    0.0                 !
 ! D53   D(25,17,19,1)         176.1404         -DE/DX =    0.0                 !
 ! D54   D(25,17,19,20)          0.6189         -DE/DX =    0.0                 !
 ! D55   D(18,17,25,26)        -55.4369         -DE/DX =    0.0                 !
 ! D56   D(18,17,25,27)         63.8457         -DE/DX =    0.0                 !
 ! D57   D(18,17,25,28)       -176.3217         -DE/DX =    0.0                 !
 ! D58   D(19,17,25,26)        125.0103         -DE/DX =    0.0                 !
 ! D59   D(19,17,25,27)       -115.7071         -DE/DX =    0.0                 !
 ! D60   D(19,17,25,28)          4.1256         -DE/DX =    0.0                 !
 ! D61   D(4,18,21,22)           5.7223         -DE/DX =    0.0                 !
 ! D62   D(4,18,21,23)         126.5914         -DE/DX =    0.0                 !
 ! D63   D(4,18,21,24)        -114.9006         -DE/DX =    0.0                 !
 ! D64   D(17,18,21,22)       -174.7154         -DE/DX =    0.0                 !
 ! D65   D(17,18,21,23)        -53.8463         -DE/DX =    0.0                 !
 ! D66   D(17,18,21,24)         64.6618         -DE/DX =    0.0                 !
 --------------------------------------------------------------------------------
 GradGradGradGradGradGradGradGradGradGradGradGradGradGradGradGradGradGrad

                          Input orientation:                          
 ---------------------------------------------------------------------
 Center     Atomic      Atomic             Coordinates (Angstroms)
 Number     Number       Type             X           Y           Z
 ---------------------------------------------------------------------
      1          6           0        4.812316   -2.119376    1.832029
      2          6           0        3.951334   -1.831521    2.919972
      3          6           0        4.030672   -0.545190    0.429323
      4          6           0        2.776570   -2.579644    3.036013
      5          6           0        2.420504    0.401127   -0.745761
      6          1           0        1.539014    0.348633   -1.374346
      7          6           0        3.037842    1.553282   -0.360545
      8          1           0        2.772310    2.572156   -0.606495
      9         16           0        4.419449    1.167768    0.641558
     10          7           0        2.989518   -0.775909   -0.275831
     11          8           0        1.861086   -2.316237    4.025540
     12          1           0        2.090731   -1.487794    4.462880
     13          6           0        4.239815   -0.688954    3.858915
     14          1           0        5.246763   -0.296181    3.699930
     15          1           0        3.548193    0.151674    3.706370
     16          1           0        4.173772   -0.995849    4.911152
     17          6           0        3.412315   -3.991502    1.159826
     18          6           0        2.480087   -3.649021    2.167827
     19          6           0        4.578381   -3.253657    1.022695
     20          1           0        5.289128   -3.500393    0.240663
     21          6           0        1.194107   -4.419442    2.319933
     22          1           0        0.548895   -3.974904    3.076655
     23          1           0        0.643941   -4.451864    1.372636
     24          1           0        1.388429   -5.460428    2.607835
     25          6           0        3.129247   -5.148957    0.234549
     26          1           0        2.936472   -6.075425    0.787561
     27          1           0        2.241756   -4.953766   -0.378979
     28          1           0        3.968387   -5.326636   -0.442442
     29          1           0        5.792463   -1.652135    1.814218
 ---------------------------------------------------------------------
                    Distance matrix (angstroms):
                    1          2          3          4          5
     1  C    0.000000
     2  C    1.416959   0.000000
     3  C    2.248692   2.804331   0.000000
     4  C    2.409500   1.397578   3.536468   0.000000
     5  C    4.326511   4.556945   2.206576   4.828415   0.000000
     6  H    5.204461   5.386420   3.203201   5.436691   1.083928
     7  C    4.630826   4.801369   2.452180   5.355926   1.362702
     8  H    5.667318   5.763543   3.517704   6.309431   2.203753
     9  S    3.518079   3.795528   1.769297   4.740839   2.551111
    10  N    3.093634   3.500366   1.278467   3.777184   1.389253
    11  O    3.682392   2.413787   4.558124   1.373557   5.519269
    12  H    3.837616   2.441425   4.573997   1.923138   5.550379
    13  C    2.546004   1.506750   3.438969   2.528431   5.069636
    14  H    2.646099   2.154934   3.498250   3.428825   5.313957
    15  H    3.204502   2.171176   3.384884   2.916313   4.599497
    16  H    3.339319   2.170858   4.506702   2.824310   6.084912
    17  C    2.432430   2.837988   3.576740   2.432610   4.889799
    18  C    2.809247   2.456338   3.880784   1.408977   4.989614
    19  C    1.412919   2.452615   2.826282   2.784649   4.597968
    20  H    2.160325   3.428342   3.217535   3.869717   4.942053
    21  C    4.315066   3.828796   5.160459   2.530181   5.842980
    22  H    4.813402   4.024330   5.558244   2.628866   6.104378
    23  H    4.798634   4.494362   5.255653   3.289398   5.585276
    24  H    4.846391   4.453636   5.990570   3.226327   6.831516
    25  C    3.816153   4.346574   4.695229   3.817584   5.680384
    26  H    4.501114   4.856732   5.648816   4.159518   6.675555
    27  H    4.419287   4.853262   4.825880   4.193406   5.370415
    28  H    4.021436   4.849944   4.860667   4.589776   5.940978
    29  H    1.085964   2.155140   2.499434   3.383588   4.705261
                    6          7          8          9         10
     6  H    0.000000
     7  C    2.173811   0.000000
     8  H    2.656063   1.081251   0.000000
     9  S    3.609952   1.749762   2.498601   0.000000
    10  N    2.138992   2.331231   3.371358   2.581508   0.000000
    11  O    6.030260   5.966212   6.795769   5.489522   4.706142
    12  H    6.144107   5.780189   6.530413   5.203598   4.875446
    13  C    5.979793   4.927089   5.720865   3.719015   4.320525
    14  H    6.317552   4.978685   5.735466   3.490163   4.596953
    15  H    5.467107   4.331831   5.006149   3.344340   4.126797
    16  H    6.946730   5.964830   6.718570   4.792810   5.325000
    17  C    5.363586   5.761630   6.827232   5.282138   3.546817
    18  C    5.423453   5.810999   6.818013   5.412216   3.806017
    19  C    5.287726   5.233858   6.313180   4.440667   3.217125
    20  H    5.611292   5.565013   6.627813   4.765373   3.602470
    21  C    6.041622   6.801305   7.741909   6.666085   4.820459
    22  H    6.283686   6.969221   7.834102   6.881712   5.237306
    23  H    5.602842   6.693015   7.601564   6.809493   4.661740
    24  H    7.044546   7.792558   8.761818   7.548927   5.729200
    25  C    5.944819   6.729227   7.774982   6.459976   4.404948
    26  H    6.920640   7.715283   8.760765   7.394889   5.405413
    27  H    5.440591   6.555590   7.548029   6.577006   4.245501
    28  H    6.243314   6.943046   7.990521   6.599681   4.657796
    29  H    5.679950   4.753128   5.729382   3.348455   3.604522
                   11         12         13         14         15
    11  O    0.000000
    12  H    0.964532   0.000000
    13  C    2.886896   2.370966   0.000000
    14  H    3.955940   3.458695   1.092470   0.000000
    15  H    3.006458   2.320421   1.099212   1.756632   0.000000
    16  H    2.806466   2.186783   1.098066   1.762924   1.777543
    17  C    3.664033   4.350322   4.344728   4.844866   4.865106
    18  C    2.368665   3.176439   3.836459   4.609053   4.237128
    19  C    4.156866   4.597994   3.838812   4.044872   4.456420
    20  H    5.242041   5.666341   4.700745   4.715433   5.327249
    21  C    2.788804   3.740417   5.055823   5.943879   5.325320
    22  H    2.318060   3.237992   5.003228   5.999286   5.140134
    23  H    3.616662   4.519792   5.768136   6.623592   5.922293
    24  H    3.481267   4.440297   5.697593   6.538261   6.112859
    25  C    4.899403   5.688709   5.853291   6.327889   6.350256
    26  H    5.076658   5.938822   6.336087   6.871609   6.904377
    27  H    5.147937   5.956456   6.335662   6.881909   6.668011
    28  H    5.784988   6.505727   6.331149   6.640706   6.884845
    29  H    4.559244   4.554694   2.742120   2.385857   3.445391
                   16         17         18         19         20
    16  H    0.000000
    17  C    4.860679   0.000000
    18  C    4.175371   1.415064   0.000000
    19  C    4.514588   1.386698   2.422907   0.000000
    20  H    5.415739   2.146737   3.409804   1.085179   0.000000
    21  C    5.226262   2.539572   1.506794   3.807255   4.683717
    22  H    5.037845   3.445821   2.159091   4.579925   5.544170
    23  H    6.076582   2.814447   2.155996   4.127708   4.874876
    24  H    5.744203   2.889738   2.160212   4.190263   4.965953
    25  C    6.341132   1.508631   2.531557   2.512633   2.717146
    26  H    6.658604   2.169734   2.828579   3.273153   3.530564
    27  H    6.883551   2.159649   2.871478   3.211679   3.432597
    28  H    6.889040   2.158487   3.441357   2.610740   2.355027
    29  H    3.555541   3.400878   3.883867   2.159947   2.479008
                   21         22         23         24         25
    21  C    0.000000
    22  H    1.089285   0.000000
    23  H    1.095950   1.772063   0.000000
    24  H    1.097406   1.769574   1.759881   0.000000
    25  C    2.936969   4.014248   2.820979   2.959721   0.000000
    26  H    2.850662   3.918248   2.869487   2.467398   1.096051
    27  H    2.944010   3.970561   2.423442   3.147369   1.096430
    28  H    4.018749   5.089612   3.887373   3.997283   1.092723
    29  H    5.390604   5.872308   5.877138   5.876090   4.670742
                   26         27         28         29
    26  H    0.000000
    27  H    1.761127   0.000000
    28  H    1.771565   1.767573   0.000000
    29  H    5.364346   5.321503   4.682064   0.000000
 Symmetry turned off by external request.
 Stoichiometry    C12H14NOS(2)
 Framework group  C1[X(C12H14NOS)]
 Deg. of freedom    81
 Full point group                 C1      NOp   1
 Rotational constants (GHZ):           0.8115267           0.3830230           0.3336033

 **********************************************************************

            Population analysis using the SCF Density.

 **********************************************************************

 Alpha  occ. eigenvalues --  -88.90266 -19.17533 -14.32468 -10.24194 -10.24035
 Alpha  occ. eigenvalues --  -10.21441 -10.21033 -10.20409 -10.19663 -10.19543
 Alpha  occ. eigenvalues --  -10.19401 -10.19126 -10.18052 -10.17896 -10.17526
 Alpha  occ. eigenvalues --   -7.96399  -5.92834  -5.92452  -5.92073  -1.05553
 Alpha  occ. eigenvalues --   -0.94980  -0.85626  -0.79464  -0.78385  -0.75648
 Alpha  occ. eigenvalues --   -0.72583  -0.72106  -0.68620  -0.65426  -0.60111
 Alpha  occ. eigenvalues --   -0.58346  -0.57800  -0.52494  -0.51700  -0.48979
 Alpha  occ. eigenvalues --   -0.48707  -0.46713  -0.44247  -0.42756  -0.42470
 Alpha  occ. eigenvalues --   -0.41050  -0.40918  -0.39605  -0.39537  -0.39405
 Alpha  occ. eigenvalues --   -0.39175  -0.37993  -0.37483  -0.36667  -0.35504
 Alpha  occ. eigenvalues --   -0.34920  -0.33980  -0.32994  -0.28619  -0.27175
 Alpha  occ. eigenvalues --   -0.25452  -0.23919  -0.21925  -0.17982
 Alpha virt. eigenvalues --   -0.01140   0.00579   0.02130   0.02875   0.06348
 Alpha virt. eigenvalues --    0.06892   0.10191   0.10531   0.12033   0.12980
 Alpha virt. eigenvalues --    0.13608   0.13832   0.14370   0.14576   0.16842
 Alpha virt. eigenvalues --    0.17481   0.17782   0.18020   0.18529   0.20388
 Alpha virt. eigenvalues --    0.21457   0.24545   0.24878   0.25842   0.26041
 Alpha virt. eigenvalues --    0.27089   0.28406   0.32119   0.33107   0.35411
 Alpha virt. eigenvalues --    0.36556   0.37027   0.37999   0.38738   0.40540
 Alpha virt. eigenvalues --    0.42711   0.46505   0.49832   0.51151   0.51950
 Alpha virt. eigenvalues --    0.52340   0.52752   0.53536   0.54043   0.55225
 Alpha virt. eigenvalues --    0.55836   0.56633   0.58708   0.58905   0.59327
 Alpha virt. eigenvalues --    0.59721   0.61049   0.63417   0.63874   0.64814
 Alpha virt. eigenvalues --    0.66193   0.67930   0.68337   0.70114   0.72939
 Alpha virt. eigenvalues --    0.73620   0.74517   0.75548   0.76084   0.77121
 Alpha virt. eigenvalues --    0.77556   0.77894   0.78649   0.80483   0.80720
 Alpha virt. eigenvalues --    0.81630   0.82943   0.83076   0.84892   0.85056
 Alpha virt. eigenvalues --    0.86182   0.86280   0.87484   0.88252   0.88978
 Alpha virt. eigenvalues --    0.89805   0.90030   0.91515   0.92189   0.93718
 Alpha virt. eigenvalues --    0.93967   0.94897   0.96775   0.99190   0.99711
 Alpha virt. eigenvalues --    1.00795   1.01382   1.03917   1.04653   1.05822
 Alpha virt. eigenvalues --    1.08350   1.10505   1.11361   1.15992   1.17967
 Alpha virt. eigenvalues --    1.20576   1.22885   1.25875   1.27387   1.28326
 Alpha virt. eigenvalues --    1.30427   1.31048   1.32660   1.33131   1.34347
 Alpha virt. eigenvalues --    1.35336   1.38526   1.39804   1.41117   1.42127
 Alpha virt. eigenvalues --    1.44457   1.54226   1.56777   1.57909   1.58993
 Alpha virt. eigenvalues --    1.64416   1.65853   1.66992   1.68904   1.71688
 Alpha virt. eigenvalues --    1.72885   1.73810   1.75430   1.76584   1.77197
 Alpha virt. eigenvalues --    1.79183   1.81632   1.84017   1.85856   1.87038
 Alpha virt. eigenvalues --    1.87896   1.88839   1.91332   1.92005   1.93329
 Alpha virt. eigenvalues --    1.95566   1.95940   1.97953   2.00755   2.02166
 Alpha virt. eigenvalues --    2.03304   2.04965   2.05033   2.07069   2.08798
 Alpha virt. eigenvalues --    2.09723   2.11002   2.11995   2.12487   2.12943
 Alpha virt. eigenvalues --    2.14036   2.15397   2.15860   2.19355   2.19541
 Alpha virt. eigenvalues --    2.21471   2.23748   2.26258   2.27276   2.29647
 Alpha virt. eigenvalues --    2.31631   2.32278   2.33985   2.35139   2.35975
 Alpha virt. eigenvalues --    2.37707   2.39014   2.41673   2.43130   2.43328
 Alpha virt. eigenvalues --    2.45748   2.46340   2.49052   2.50770   2.51975
 Alpha virt. eigenvalues --    2.52589   2.54279   2.54860   2.56388   2.58255
 Alpha virt. eigenvalues --    2.59250   2.61162   2.65910   2.67603   2.69222
 Alpha virt. eigenvalues --    2.70477   2.70599   2.72018   2.73021   2.75457
 Alpha virt. eigenvalues --    2.77910   2.79865   2.82989   2.84242   2.85298
 Alpha virt. eigenvalues --    2.86102   2.88008   2.89363   2.90927   2.94792
 Alpha virt. eigenvalues --    3.00589   3.08467   3.11097   3.12579   3.18487
 Alpha virt. eigenvalues --    3.18727   3.20223   3.24720   3.25888   3.31563
 Alpha virt. eigenvalues --    3.34418   3.41580   3.41975   3.45858   3.46027
 Alpha virt. eigenvalues --    3.47199   3.49616   3.52432   3.60497   3.71633
 Alpha virt. eigenvalues --    3.94414   4.00827   4.07977   4.14155   4.15638
 Alpha virt. eigenvalues --    4.25620   4.32445   4.36169   4.42055   4.48135
 Alpha virt. eigenvalues --    4.49873   4.50753   4.58794   4.61704   4.86258
  Beta  occ. eigenvalues --  -88.90194 -19.17568 -14.32394 -10.24320 -10.22773
  Beta  occ. eigenvalues --  -10.21317 -10.21051 -10.20477 -10.19562 -10.19392
  Beta  occ. eigenvalues --  -10.19262 -10.19088 -10.17889 -10.17797 -10.17544
  Beta  occ. eigenvalues --   -7.96320  -5.92697  -5.92333  -5.92036  -1.05629
  Beta  occ. eigenvalues --   -0.94527  -0.85321  -0.79176  -0.78039  -0.75346
  Beta  occ. eigenvalues --   -0.72424  -0.71499  -0.68597  -0.65291  -0.59958
  Beta  occ. eigenvalues --   -0.58075  -0.57376  -0.51712  -0.51288  -0.48823
  Beta  occ. eigenvalues --   -0.48212  -0.46518  -0.43921  -0.42575  -0.42282
  Beta  occ. eigenvalues --   -0.40994  -0.40428  -0.39574  -0.39415  -0.39308
  Beta  occ. eigenvalues --   -0.38898  -0.37993  -0.37419  -0.36588  -0.35306
  Beta  occ. eigenvalues --   -0.33890  -0.33481  -0.32897  -0.27262  -0.27121
  Beta  occ. eigenvalues --   -0.24143  -0.23018  -0.21106
  Beta virt. eigenvalues --   -0.08764  -0.00255   0.01612   0.02808   0.03325
  Beta virt. eigenvalues --    0.06538   0.07340   0.10216   0.10818   0.12567
  Beta virt. eigenvalues --    0.13096   0.13730   0.14149   0.14492   0.14664
  Beta virt. eigenvalues --    0.16897   0.17506   0.17887   0.18172   0.18771
  Beta virt. eigenvalues --    0.20425   0.21536   0.24757   0.25207   0.26076
  Beta virt. eigenvalues --    0.26276   0.27250   0.28941   0.32329   0.33210
  Beta virt. eigenvalues --    0.35484   0.36614   0.37263   0.38599   0.38990
  Beta virt. eigenvalues --    0.40904   0.42982   0.46804   0.49952   0.51556
  Beta virt. eigenvalues --    0.52354   0.52624   0.53082   0.54166   0.54329
  Beta virt. eigenvalues --    0.55322   0.55984   0.56943   0.58932   0.59355
  Beta virt. eigenvalues --    0.59629   0.60059   0.61124   0.63533   0.64247
  Beta virt. eigenvalues --    0.65579   0.66587   0.68093   0.68740   0.70383
  Beta virt. eigenvalues --    0.73090   0.73938   0.74856   0.75994   0.76272
  Beta virt. eigenvalues --    0.77248   0.77731   0.78026   0.79025   0.80681
  Beta virt. eigenvalues --    0.81158   0.81797   0.83148   0.83426   0.84995
  Beta virt. eigenvalues --    0.85223   0.86291   0.86432   0.87566   0.88314
  Beta virt. eigenvalues --    0.89169   0.89847   0.90398   0.91638   0.92269
  Beta virt. eigenvalues --    0.93867   0.94348   0.95204   0.97264   0.99252
  Beta virt. eigenvalues --    0.99822   1.01213   1.01576   1.04123   1.04728
  Beta virt. eigenvalues --    1.06096   1.08457   1.10860   1.11460   1.16306
  Beta virt. eigenvalues --    1.18099   1.20870   1.23110   1.26144   1.27620
  Beta virt. eigenvalues --    1.28660   1.30652   1.31247   1.33088   1.33358
  Beta virt. eigenvalues --    1.34642   1.35498   1.38804   1.40111   1.41256
  Beta virt. eigenvalues --    1.42658   1.45263   1.54713   1.57138   1.58615
  Beta virt. eigenvalues --    1.59100   1.64636   1.66112   1.67528   1.69256
  Beta virt. eigenvalues --    1.71992   1.73324   1.74097   1.75654   1.76730
  Beta virt. eigenvalues --    1.77427   1.79248   1.81819   1.84374   1.86188
  Beta virt. eigenvalues --    1.87733   1.88269   1.89294   1.91841   1.92447
  Beta virt. eigenvalues --    1.93823   1.95758   1.96297   1.98612   2.00881
  Beta virt. eigenvalues --    2.02304   2.03409   2.05008   2.05152   2.07171
  Beta virt. eigenvalues --    2.08867   2.09832   2.11256   2.12100   2.12564
  Beta virt. eigenvalues --    2.13068   2.14108   2.15542   2.15954   2.19553
  Beta virt. eigenvalues --    2.19592   2.22983   2.24463   2.26617   2.28616
  Beta virt. eigenvalues --    2.29871   2.31925   2.32940   2.34148   2.35382
  Beta virt. eigenvalues --    2.36766   2.37844   2.39031   2.41851   2.43210
  Beta virt. eigenvalues --    2.43680   2.46196   2.46608   2.49299   2.51120
  Beta virt. eigenvalues --    2.52375   2.52933   2.54728   2.55161   2.56554
  Beta virt. eigenvalues --    2.58519   2.59498   2.61306   2.66063   2.67789
  Beta virt. eigenvalues --    2.69406   2.70616   2.70726   2.72128   2.73170
  Beta virt. eigenvalues --    2.75602   2.78003   2.80004   2.83306   2.84674
  Beta virt. eigenvalues --    2.85330   2.86388   2.88122   2.89483   2.91585
  Beta virt. eigenvalues --    2.94868   3.00778   3.08562   3.11428   3.12651
  Beta virt. eigenvalues --    3.18547   3.18789   3.20381   3.24780   3.25981
  Beta virt. eigenvalues --    3.31673   3.34508   3.41670   3.42023   3.45892
  Beta virt. eigenvalues --    3.46046   3.47212   3.49635   3.52450   3.60649
  Beta virt. eigenvalues --    3.71765   3.94774   4.01135   4.08280   4.14964
  Beta virt. eigenvalues --    4.15732   4.26082   4.32951   4.37206   4.42244
  Beta virt. eigenvalues --    4.48165   4.49880   4.50860   4.58746   4.61818
  Beta virt. eigenvalues --    4.86459
          Condensed to atoms (all electrons):
               1          2          3          4          5          6
     1  C    5.011235   0.466908   0.046566   0.026470   0.000897  -0.000007
     2  C    0.466908   4.999334  -0.018481   0.428247  -0.000060   0.000001
     3  C    0.046566  -0.018481   5.411116  -0.006106  -0.090013   0.007965
     4  C    0.026470   0.428247  -0.006106   4.770180  -0.000065   0.000003
     5  C    0.000897  -0.000060  -0.090013  -0.000065   4.750671   0.382174
     6  H   -0.000007   0.000001   0.007965   0.000003   0.382174   0.601924
     7  C    0.000125   0.000037  -0.050858   0.000007   0.567844  -0.057402
     8  H   -0.000001   0.000000   0.003481  -0.000000  -0.018945  -0.001019
     9  S   -0.009053  -0.001134   0.224440  -0.000078  -0.105461   0.005218
    10  N   -0.012558  -0.001686   0.512193   0.000743   0.415219  -0.043808
    11  O    0.003824  -0.083659  -0.000021   0.285738   0.000000  -0.000000
    12  H    0.000232  -0.021305  -0.000007  -0.027429  -0.000000   0.000000
    13  C   -0.059995   0.331094   0.001043  -0.051377   0.000009  -0.000000
    14  H   -0.002525  -0.024865  -0.000427   0.003206  -0.000001  -0.000000
    15  H   -0.001452  -0.033899   0.000934  -0.003317   0.000003  -0.000000
    16  H    0.002581  -0.031986   0.000097  -0.003617  -0.000001  -0.000000
    17  C   -0.009920  -0.041741  -0.004478   0.009532  -0.000051   0.000005
    18  C   -0.054925  -0.055203   0.001530   0.444995   0.000065  -0.000002
    19  C    0.427865  -0.024708  -0.017344  -0.072930  -0.000032   0.000003
    20  H   -0.042667   0.003931   0.000933   0.000895   0.000005  -0.000000
    21  C   -0.000399   0.009649   0.000006  -0.057943   0.000001  -0.000000
    22  H   -0.000024   0.000398  -0.000000  -0.008308  -0.000000  -0.000000
    23  H   -0.000012  -0.000091  -0.000001   0.001621  -0.000000   0.000000
    24  H    0.000074  -0.000301   0.000000   0.000643   0.000000  -0.000000
    25  C    0.008331  -0.000202  -0.000013   0.009072  -0.000002   0.000000
    26  H   -0.000157   0.000003  -0.000002  -0.000079  -0.000000   0.000000
    27  H   -0.000318   0.000068   0.000008  -0.000288   0.000001  -0.000001
    28  H    0.000157   0.000001  -0.000002  -0.000142   0.000000  -0.000000
    29  H    0.368801  -0.040606  -0.016625   0.004365  -0.000046   0.000000
               7          8          9         10         11         12
     1  C    0.000125  -0.000001  -0.009053  -0.012558   0.003824   0.000232
     2  C    0.000037   0.000000  -0.001134  -0.001686  -0.083659  -0.021305
     3  C   -0.050858   0.003481   0.224440   0.512193  -0.000021  -0.000007
     4  C    0.000007  -0.000000  -0.000078   0.000743   0.285738  -0.027429
     5  C    0.567844  -0.018945  -0.105461   0.415219   0.000000  -0.000000
     6  H   -0.057402  -0.001019   0.005218  -0.043808  -0.000000   0.000000
     7  C    5.234426   0.356611   0.317419  -0.060937   0.000000  -0.000000
     8  H    0.356611   0.560492  -0.032673   0.004294   0.000000   0.000000
     9  S    0.317419  -0.032673  15.486839  -0.088117  -0.000003  -0.000006
    10  N   -0.060937   0.004294  -0.088117   6.653098  -0.000007   0.000000
    11  O    0.000000   0.000000  -0.000003  -0.000007   8.129316   0.298272
    12  H   -0.000000   0.000000  -0.000006   0.000000   0.298272   0.403949
    13  C   -0.000044   0.000000   0.000224  -0.000125  -0.009204   0.014273
    14  H    0.000005   0.000000   0.000850   0.000009   0.000363  -0.000364
    15  H   -0.000082  -0.000001   0.002126   0.000095   0.000299   0.002963
    16  H   -0.000001   0.000000   0.000140  -0.000001   0.002342   0.002293
    17  C   -0.000000   0.000000   0.000065   0.002126   0.003057  -0.000032
    18  C   -0.000004  -0.000000  -0.000018   0.000857  -0.061122   0.007165
    19  C    0.000021   0.000000   0.001402  -0.000744   0.000093  -0.000054
    20  H   -0.000000  -0.000000  -0.000032   0.000007   0.000002  -0.000000
    21  C   -0.000000  -0.000000  -0.000000  -0.000033  -0.011089   0.000043
    22  H    0.000000   0.000000  -0.000000  -0.000000   0.010914  -0.000307
    23  H    0.000000   0.000000   0.000000   0.000004   0.000318  -0.000003
    24  H   -0.000000  -0.000000  -0.000000   0.000000   0.000471  -0.000010
    25  C   -0.000000   0.000000   0.000001  -0.000163  -0.000046   0.000004
    26  H    0.000000   0.000000   0.000000   0.000002   0.000000   0.000000
    27  H    0.000000  -0.000000   0.000000   0.000106  -0.000000  -0.000000
    28  H   -0.000000   0.000000   0.000000  -0.000000   0.000000  -0.000000
    29  H    0.000003   0.000000   0.001232   0.000803  -0.000054  -0.000014
              13         14         15         16         17         18
     1  C   -0.059995  -0.002525  -0.001452   0.002581  -0.009920  -0.054925
     2  C    0.331094  -0.024865  -0.033899  -0.031986  -0.041741  -0.055203
     3  C    0.001043  -0.000427   0.000934   0.000097  -0.004478   0.001530
     4  C   -0.051377   0.003206  -0.003317  -0.003617   0.009532   0.444995
     5  C    0.000009  -0.000001   0.000003  -0.000001  -0.000051   0.000065
     6  H   -0.000000  -0.000000  -0.000000  -0.000000   0.000005  -0.000002
     7  C   -0.000044   0.000005  -0.000082  -0.000001  -0.000000  -0.000004
     8  H    0.000000   0.000000  -0.000001   0.000000   0.000000  -0.000000
     9  S    0.000224   0.000850   0.002126   0.000140   0.000065  -0.000018
    10  N   -0.000125   0.000009   0.000095  -0.000001   0.002126   0.000857
    11  O   -0.009204   0.000363   0.000299   0.002342   0.003057  -0.061122
    12  H    0.014273  -0.000364   0.002963   0.002293  -0.000032   0.007165
    13  C    5.077927   0.373735   0.372882   0.363704   0.000390   0.007693
    14  H    0.373735   0.572445  -0.027594  -0.024314   0.000009  -0.000165
    15  H    0.372882  -0.027594   0.593895  -0.040793   0.000001  -0.000100
    16  H    0.363704  -0.024314  -0.040793   0.613724   0.000048  -0.000178
    17  C    0.000390   0.000009   0.000001   0.000048   4.711899   0.518032
    18  C    0.007693  -0.000165  -0.000100  -0.000178   0.518032   4.912223
    19  C    0.006680   0.000133  -0.000068  -0.000227   0.531409  -0.004672
    20  H   -0.000181  -0.000010   0.000003   0.000002  -0.033462   0.004918
    21  C   -0.000183   0.000002   0.000003  -0.000001  -0.074884   0.349220
    22  H   -0.000004  -0.000000   0.000000  -0.000000   0.004022  -0.024163
    23  H    0.000002  -0.000000  -0.000000   0.000000  -0.006893  -0.027378
    24  H    0.000002  -0.000000   0.000000  -0.000000  -0.003955  -0.025638
    25  C    0.000002  -0.000000  -0.000000   0.000000   0.366639  -0.068435
    26  H   -0.000000  -0.000000   0.000000  -0.000000  -0.025399  -0.006957
    27  H    0.000000   0.000000  -0.000000   0.000000  -0.024903  -0.004339
    28  H   -0.000000  -0.000000   0.000000  -0.000000  -0.026983   0.004264
    29  H   -0.009875   0.005534   0.000050   0.000142   0.003775   0.000824
              19         20         21         22         23         24
     1  C    0.427865  -0.042667  -0.000399  -0.000024  -0.000012   0.000074
     2  C   -0.024708   0.003931   0.009649   0.000398  -0.000091  -0.000301
     3  C   -0.017344   0.000933   0.000006  -0.000000  -0.000001   0.000000
     4  C   -0.072930   0.000895  -0.057943  -0.008308   0.001621   0.000643
     5  C   -0.000032   0.000005   0.000001  -0.000000  -0.000000   0.000000
     6  H    0.000003  -0.000000  -0.000000  -0.000000   0.000000  -0.000000
     7  C    0.000021  -0.000000  -0.000000   0.000000   0.000000  -0.000000
     8  H    0.000000  -0.000000  -0.000000   0.000000   0.000000  -0.000000
     9  S    0.001402  -0.000032  -0.000000  -0.000000   0.000000  -0.000000
    10  N   -0.000744   0.000007  -0.000033  -0.000000   0.000004   0.000000
    11  O    0.000093   0.000002  -0.011089   0.010914   0.000318   0.000471
    12  H   -0.000054  -0.000000   0.000043  -0.000307  -0.000003  -0.000010
    13  C    0.006680  -0.000181  -0.000183  -0.000004   0.000002   0.000002
    14  H    0.000133  -0.000010   0.000002  -0.000000  -0.000000  -0.000000
    15  H   -0.000068   0.000003   0.000003   0.000000  -0.000000   0.000000
    16  H   -0.000227   0.000002  -0.000001  -0.000000   0.000000  -0.000000
    17  C    0.531409  -0.033462  -0.074884   0.004022  -0.006893  -0.003955
    18  C   -0.004672   0.004918   0.349220  -0.024163  -0.027378  -0.025638
    19  C    4.971210   0.361382   0.009080  -0.000150  -0.000003  -0.000286
    20  H    0.361382   0.630622  -0.000169   0.000002  -0.000002  -0.000003
    21  C    0.009080  -0.000169   5.053761   0.378057   0.372803   0.367854
    22  H   -0.000150   0.000002   0.378057   0.556614  -0.026360  -0.027446
    23  H   -0.000003  -0.000002   0.372803  -0.026360   0.596106  -0.035089
    24  H   -0.000286  -0.000003   0.367854  -0.027446  -0.035089   0.601378
    25  C   -0.066833  -0.010993  -0.018821   0.000190   0.002428   0.001802
    26  H    0.001282   0.000160   0.002608   0.000006  -0.001298   0.003413
    27  H    0.000449   0.000224   0.001540   0.000012   0.003790  -0.000856
    28  H   -0.005383   0.006612   0.000239  -0.000007  -0.000001   0.000012
    29  H   -0.035548  -0.005213   0.000011   0.000000  -0.000000   0.000000
              25         26         27         28         29
     1  C    0.008331  -0.000157  -0.000318   0.000157   0.368801
     2  C   -0.000202   0.000003   0.000068   0.000001  -0.040606
     3  C   -0.000013  -0.000002   0.000008  -0.000002  -0.016625
     4  C    0.009072  -0.000079  -0.000288  -0.000142   0.004365
     5  C   -0.000002  -0.000000   0.000001   0.000000  -0.000046
     6  H    0.000000   0.000000  -0.000001  -0.000000   0.000000
     7  C   -0.000000   0.000000   0.000000  -0.000000   0.000003
     8  H    0.000000   0.000000  -0.000000   0.000000   0.000000
     9  S    0.000001   0.000000   0.000000   0.000000   0.001232
    10  N   -0.000163   0.000002   0.000106  -0.000000   0.000803
    11  O   -0.000046   0.000000  -0.000000   0.000000  -0.000054
    12  H    0.000004   0.000000  -0.000000  -0.000000  -0.000014
    13  C    0.000002  -0.000000   0.000000  -0.000000  -0.009875
    14  H   -0.000000  -0.000000   0.000000  -0.000000   0.005534
    15  H   -0.000000   0.000000  -0.000000   0.000000   0.000050
    16  H    0.000000  -0.000000   0.000000  -0.000000   0.000142
    17  C    0.366639  -0.025399  -0.024903  -0.026983   0.003775
    18  C   -0.068435  -0.006957  -0.004339   0.004264   0.000824
    19  C   -0.066833   0.001282   0.000449  -0.005383  -0.035548
    20  H   -0.010993   0.000160   0.000224   0.006612  -0.005213
    21  C   -0.018821   0.002608   0.001540   0.000239   0.000011
    22  H    0.000190   0.000006   0.000012  -0.000007   0.000000
    23  H    0.002428  -0.001298   0.003790  -0.000001  -0.000000
    24  H    0.001802   0.003413  -0.000856   0.000012   0.000000
    25  C    5.045085   0.369838   0.370149   0.373912  -0.000195
    26  H    0.369838   0.606331  -0.035609  -0.029426   0.000004
    27  H    0.370149  -0.035609   0.589469  -0.027718   0.000001
    28  H    0.373912  -0.029426  -0.027718   0.595709  -0.000006
    29  H   -0.000195   0.000004   0.000001  -0.000006   0.625281
          Atomic-Atomic Spin Densities.
               1          2          3          4          5          6
     1  C   -0.082194   0.022213  -0.069597  -0.000160  -0.000615   0.000008
     2  C    0.022213   0.217965  -0.026701  -0.009754  -0.000359   0.000006
     3  C   -0.069597  -0.026701   0.867187  -0.000757  -0.013623   0.000833
     4  C   -0.000160  -0.009754  -0.000757  -0.101439   0.000016  -0.000001
     5  C   -0.000615  -0.000359  -0.013623   0.000016   0.114552  -0.007057
     6  H    0.000008   0.000006   0.000833  -0.000001  -0.007057   0.002031
     7  C    0.000014   0.000037   0.001754  -0.000000  -0.013465   0.003084
     8  H    0.000003   0.000002   0.000521  -0.000000  -0.003389   0.000388
     9  S    0.006382   0.003378  -0.082948   0.000059  -0.019861   0.000612
    10  N    0.002781   0.000700  -0.041460   0.000040  -0.008573   0.001349
    11  O   -0.000072   0.000356  -0.000007   0.011855  -0.000000   0.000000
    12  H    0.000001  -0.000146  -0.000011   0.000351  -0.000000   0.000000
    13  C    0.000105  -0.001949   0.000718   0.000598   0.000004  -0.000000
    14  H    0.000294  -0.000523  -0.000249   0.000026  -0.000001   0.000000
    15  H   -0.000515  -0.004488   0.001673  -0.000158   0.000049  -0.000001
    16  H    0.000070  -0.003298  -0.000108   0.000536  -0.000000   0.000000
    17  C   -0.000250   0.000338   0.000292  -0.001186   0.000017  -0.000001
    18  C   -0.000545  -0.009786   0.002418   0.003198   0.000111  -0.000006
    19  C    0.019178   0.004395  -0.032311   0.000532  -0.000381   0.000009
    20  H    0.000241   0.000048   0.000521  -0.000040   0.000003  -0.000000
    21  C   -0.000001  -0.000082   0.000000   0.000234  -0.000000   0.000000
    22  H    0.000000   0.000002  -0.000000   0.000212  -0.000000   0.000000
    23  H    0.000003   0.000000  -0.000009  -0.000119  -0.000002   0.000000
    24  H    0.000004   0.000052   0.000002   0.000121   0.000000  -0.000000
    25  C   -0.000038   0.000013  -0.000020  -0.000020  -0.000000   0.000000
    26  H   -0.000010   0.000003  -0.000000  -0.000016  -0.000000  -0.000000
    27  H    0.000002  -0.000004  -0.000004   0.000005  -0.000001   0.000000
    28  H    0.000003   0.000001   0.000002  -0.000002   0.000000  -0.000000
    29  H    0.006294  -0.000753  -0.011256   0.000127  -0.000028   0.000000
               7          8          9         10         11         12
     1  C    0.000014   0.000003   0.006382   0.002781  -0.000072   0.000001
     2  C    0.000037   0.000002   0.003378   0.000700   0.000356  -0.000146
     3  C    0.001754   0.000521  -0.082948  -0.041460  -0.000007  -0.000011
     4  C   -0.000000  -0.000000   0.000059   0.000040   0.011855   0.000351
     5  C   -0.013465  -0.003389  -0.019861  -0.008573  -0.000000  -0.000000
     6  H    0.003084   0.000388   0.000612   0.001349   0.000000   0.000000
     7  C   -0.010246  -0.000117   0.007175   0.001559   0.000000   0.000000
     8  H   -0.000117   0.006978  -0.001293  -0.000284   0.000000   0.000000
     9  S    0.007175  -0.001293   0.143171   0.003787   0.000002   0.000003
    10  N    0.001559  -0.000284   0.003787   0.031599   0.000001   0.000000
    11  O    0.000000   0.000000   0.000002   0.000001  -0.019690  -0.000021
    12  H    0.000000   0.000000   0.000003   0.000000  -0.000021  -0.000124
    13  C    0.000001  -0.000000  -0.000130  -0.000004   0.000108   0.000025
    14  H   -0.000001   0.000000   0.000080  -0.000000  -0.000000   0.000005
    15  H    0.000009  -0.000003  -0.000751   0.000007  -0.000018  -0.000181
    16  H    0.000000   0.000000   0.000025  -0.000000  -0.000070   0.000128
    17  C   -0.000001  -0.000000  -0.000005  -0.000090  -0.000045   0.000000
    18  C   -0.000007  -0.000000  -0.000135  -0.001086  -0.001127   0.000094
    19  C    0.000019   0.000000   0.001381   0.004343   0.000010  -0.000000
    20  H   -0.000000  -0.000000  -0.000023  -0.000065  -0.000000  -0.000000
    21  C    0.000000   0.000000  -0.000000  -0.000001   0.000193  -0.000006
    22  H    0.000000   0.000000   0.000000   0.000000  -0.000025   0.000008
    23  H    0.000000   0.000000   0.000001   0.000018   0.000023   0.000002
    24  H   -0.000000  -0.000000  -0.000000  -0.000001  -0.000015  -0.000002
    25  C    0.000000   0.000000   0.000001   0.000022  -0.000000  -0.000000
    26  H    0.000000  -0.000000   0.000000   0.000000  -0.000000  -0.000000
    27  H    0.000000   0.000000   0.000000   0.000001   0.000000   0.000000
    28  H   -0.000000  -0.000000  -0.000000  -0.000001  -0.000000  -0.000000
    29  H   -0.000004   0.000000   0.001419   0.000132  -0.000000   0.000001
              13         14         15         16         17         18
     1  C    0.000105   0.000294  -0.000515   0.000070  -0.000250  -0.000545
     2  C   -0.001949  -0.000523  -0.004488  -0.003298   0.000338  -0.009786
     3  C    0.000718  -0.000249   0.001673  -0.000108   0.000292   0.002418
     4  C    0.000598   0.000026  -0.000158   0.000536  -0.001186   0.003198
     5  C    0.000004  -0.000001   0.000049  -0.000000   0.000017   0.000111
     6  H   -0.000000   0.000000  -0.000001   0.000000  -0.000001  -0.000006
     7  C    0.000001  -0.000001   0.000009   0.000000  -0.000001  -0.000007
     8  H   -0.000000   0.000000  -0.000003   0.000000  -0.000000  -0.000000
     9  S   -0.000130   0.000080  -0.000751   0.000025  -0.000005  -0.000135
    10  N   -0.000004  -0.000000   0.000007  -0.000000  -0.000090  -0.001086
    11  O    0.000108  -0.000000  -0.000018  -0.000070  -0.000045  -0.001127
    12  H    0.000025   0.000005  -0.000181   0.000128   0.000000   0.000094
    13  C   -0.017408   0.000626   0.000699   0.002381  -0.000011  -0.000038
    14  H    0.000626   0.000628  -0.000704   0.000260   0.000001  -0.000001
    15  H    0.000699  -0.000704   0.015987  -0.002674  -0.000005   0.000058
    16  H    0.002381   0.000260  -0.002674   0.007884   0.000004   0.000028
    17  C   -0.000011   0.000001  -0.000005   0.000004  -0.110371   0.004635
    18  C   -0.000038  -0.000001   0.000058   0.000028   0.004635   0.253146
    19  C   -0.000035   0.000000  -0.000020  -0.000010  -0.007705  -0.009241
    20  H    0.000002  -0.000000   0.000000  -0.000000   0.000046   0.000026
    21  C    0.000002  -0.000000   0.000000  -0.000000   0.000705  -0.003055
    22  H    0.000000   0.000000  -0.000000   0.000000  -0.000025  -0.000510
    23  H    0.000000   0.000000  -0.000000   0.000000   0.000205  -0.004492
    24  H   -0.000000  -0.000000   0.000000  -0.000000  -0.000180  -0.005741
    25  C   -0.000000   0.000000  -0.000000   0.000000   0.002251  -0.001001
    26  H    0.000000   0.000000  -0.000000   0.000000   0.001771   0.000009
    27  H   -0.000000   0.000000  -0.000000  -0.000000   0.001931  -0.000164
    28  H    0.000000  -0.000000   0.000000  -0.000000   0.000313   0.000061
    29  H   -0.000004   0.000115  -0.000131   0.000062   0.000023   0.000000
              19         20         21         22         23         24
     1  C    0.019178   0.000241  -0.000001   0.000000   0.000003   0.000004
     2  C    0.004395   0.000048  -0.000082   0.000002   0.000000   0.000052
     3  C   -0.032311   0.000521   0.000000  -0.000000  -0.000009   0.000002
     4  C    0.000532  -0.000040   0.000234   0.000212  -0.000119   0.000121
     5  C   -0.000381   0.000003  -0.000000  -0.000000  -0.000002   0.000000
     6  H    0.000009  -0.000000   0.000000   0.000000   0.000000  -0.000000
     7  C    0.000019  -0.000000   0.000000   0.000000   0.000000  -0.000000
     8  H    0.000000  -0.000000   0.000000   0.000000   0.000000  -0.000000
     9  S    0.001381  -0.000023  -0.000000   0.000000   0.000001  -0.000000
    10  N    0.004343  -0.000065  -0.000001   0.000000   0.000018  -0.000001
    11  O    0.000010  -0.000000   0.000193  -0.000025   0.000023  -0.000015
    12  H   -0.000000  -0.000000  -0.000006   0.000008   0.000002  -0.000002
    13  C   -0.000035   0.000002   0.000002   0.000000   0.000000  -0.000000
    14  H    0.000000  -0.000000  -0.000000   0.000000   0.000000  -0.000000
    15  H   -0.000020   0.000000   0.000000  -0.000000  -0.000000   0.000000
    16  H   -0.000010  -0.000000  -0.000000   0.000000   0.000000  -0.000000
    17  C   -0.007705   0.000046   0.000705  -0.000025   0.000205  -0.000180
    18  C   -0.009241   0.000026  -0.003055  -0.000510  -0.004492  -0.005741
    19  C    0.208477   0.001069  -0.000033  -0.000001   0.000054   0.000058
    20  H    0.001069  -0.010080   0.000002  -0.000000  -0.000001   0.000001
    21  C   -0.000033   0.000002  -0.020274   0.000776   0.001702   0.002409
    22  H   -0.000001  -0.000000   0.000776   0.000366   0.000266  -0.000603
    23  H    0.000054  -0.000001   0.001702   0.000266   0.015196  -0.004125
    24  H    0.000058   0.000001   0.002409  -0.000603  -0.004125   0.018840
    25  C   -0.000141   0.000102   0.000222   0.000001  -0.000067   0.000110
    26  H    0.000004   0.000001   0.000016   0.000001   0.000038  -0.000097
    27  H    0.000052  -0.000007  -0.000034   0.000001   0.000029  -0.000013
    28  H   -0.000125  -0.000054  -0.000004  -0.000000  -0.000001   0.000003
    29  H    0.000159  -0.000058   0.000000   0.000000   0.000000  -0.000000
              25         26         27         28         29
     1  C   -0.000038  -0.000010   0.000002   0.000003   0.006294
     2  C    0.000013   0.000003  -0.000004   0.000001  -0.000753
     3  C   -0.000020  -0.000000  -0.000004   0.000002  -0.011256
     4  C   -0.000020  -0.000016   0.000005  -0.000002   0.000127
     5  C   -0.000000  -0.000000  -0.000001   0.000000  -0.000028
     6  H    0.000000  -0.000000   0.000000  -0.000000   0.000000
     7  C    0.000000   0.000000   0.000000  -0.000000  -0.000004
     8  H    0.000000  -0.000000   0.000000  -0.000000   0.000000
     9  S    0.000001   0.000000   0.000000  -0.000000   0.001419
    10  N    0.000022   0.000000   0.000001  -0.000001   0.000132
    11  O   -0.000000  -0.000000   0.000000  -0.000000  -0.000000
    12  H   -0.000000  -0.000000   0.000000  -0.000000   0.000001
    13  C   -0.000000   0.000000  -0.000000   0.000000  -0.000004
    14  H    0.000000   0.000000   0.000000  -0.000000   0.000115
    15  H   -0.000000  -0.000000  -0.000000   0.000000  -0.000131
    16  H    0.000000   0.000000  -0.000000  -0.000000   0.000062
    17  C    0.002251   0.001771   0.001931   0.000313   0.000023
    18  C   -0.001001   0.000009  -0.000164   0.000061   0.000000
    19  C   -0.000141   0.000004   0.000052  -0.000125   0.000159
    20  H    0.000102   0.000001  -0.000007  -0.000054  -0.000058
    21  C    0.000222   0.000016  -0.000034  -0.000004   0.000000
    22  H    0.000001   0.000001   0.000001  -0.000000   0.000000
    23  H   -0.000067   0.000038   0.000029  -0.000001   0.000000
    24  H    0.000110  -0.000097  -0.000013   0.000003  -0.000000
    25  C    0.006972  -0.000801  -0.000571  -0.000314   0.000000
    26  H   -0.000801  -0.005272   0.001386   0.000012  -0.000000
    27  H   -0.000571   0.001386  -0.006387   0.000161   0.000000
    28  H   -0.000314   0.000012   0.000161  -0.000461  -0.000000
    29  H    0.000000  -0.000000   0.000000  -0.000000   0.013760
 Mulliken charges and spin densities:
               1          2
     1  C   -0.170055  -0.096402
     2  C    0.140256   0.191667
     3  C   -0.005934   0.596861
     4  C    0.245962  -0.095742
     5  C    0.097786   0.047396
     6  H    0.104946   0.001254
     7  C   -0.307169  -0.010189
     8  H    0.127760   0.002806
     9  S    0.196619   0.062329
    10  N   -0.381377  -0.005224
    11  O   -0.569805  -0.008543
    12  H    0.320340   0.000127
    13  C   -0.418673  -0.014311
    14  H    0.123974   0.000558
    15  H    0.134053   0.008831
    16  H    0.116045   0.005218
    17  C    0.101693  -0.107342
    18  C    0.081513   0.226848
    19  C   -0.082028   0.189736
    20  H    0.083035  -0.008266
    21  C   -0.381353  -0.017227
    22  H    0.136553   0.000468
    23  H    0.120060   0.008719
    24  H    0.117937   0.010823
    25  C   -0.381749   0.006721
    26  H    0.115279  -0.002955
    27  H    0.128215  -0.003615
    28  H    0.108763  -0.000407
    29  H    0.097353   0.009860
 Sum of Mulliken charges =  -0.00000   1.00000
 Mulliken charges and spin densities with hydrogens summed into heavy atoms:
               1          2
     1  C   -0.072702  -0.086542
     2  C    0.140256   0.191667
     3  C   -0.005934   0.596861
     4  C    0.245962  -0.095742
     5  C    0.202732   0.048650
     7  C   -0.179409  -0.007382
     9  S    0.196619   0.062329
    10  N   -0.381377  -0.005224
    11  O   -0.249465  -0.008416
    13  C   -0.044600   0.000296
    17  C    0.101693  -0.107342
    18  C    0.081513   0.226848
    19  C    0.001007   0.181471
    21  C   -0.006802   0.002784
    25  C   -0.029493  -0.000256
 Electronic spatial extent (au):  <R**2>=          10357.4286
 Charge=             -0.0000 electrons
 Dipole moment (field-independent basis, Debye):
    X=              0.0537    Y=              0.6416    Z=              1.1817  Tot=              1.3457
 Quadrupole moment (field-independent basis, Debye-Ang):
   XX=            -93.2795   YY=            -90.0102   ZZ=            -88.6704
   XY=             -0.0568   XZ=              6.8097   YZ=              2.4602
 Traceless Quadrupole moment (field-independent basis, Debye-Ang):
   XX=             -2.6262   YY=              0.6431   ZZ=              1.9830
   XY=             -0.0568   XZ=              6.8097   YZ=              2.4602
 Octapole moment (field-independent basis, Debye-Ang**2):
  XXX=           -935.1916  YYY=            461.6327  ZZZ=           -373.3706  XYY=           -309.9834
  XXY=            151.0166  XXZ=           -107.8253  XZZ=           -295.1261  YZZ=            178.8065
  YYZ=           -155.3947  XYZ=              6.7492
 Hexadecapole moment (field-independent basis, Debye-Ang**3):
 XXXX=          -7034.7640 YYYY=          -4145.7421 ZZZZ=          -2382.3170 XXXY=           1290.5674
 XXXZ=          -1196.4462 YYYX=           1351.7429 YYYZ=            988.7424 ZZZX=          -1195.3535
 ZZZY=           1033.1244 XXYY=          -1925.3998 XXZZ=          -1551.0160 YYZZ=          -1247.8379
 XXYZ=            357.5687 YYXZ=           -514.3011 ZZXY=            492.3124
 N-N= 1.077767959072D+03 E-N=-4.484908773217D+03  KE= 9.868768732474D+02
                          Isotropic Fermi Contact Couplings
        Atom                 a.u.       MegaHertz       Gauss      10(-4) cm-1
     1  C(13)              0.01313      14.76267       5.26769       4.92430
     2  C(13)              0.02157      24.24816       8.65235       8.08832
     3  C(13)              0.60777     683.24414     243.79850     227.90571
     4  C(13)             -0.01585     -17.81643      -6.35735      -5.94292
     5  C(13)              0.05883      66.13494      23.59859      22.06024
     6  H(1)               0.00014       0.62989       0.22476       0.21011
     7  C(13)             -0.00196      -2.20222      -0.78581      -0.73458
     8  H(1)               0.00144       6.44154       2.29850       2.14867
     9  S(33)              0.15631      53.68787      19.15717      17.90835
    10  N(14)              0.12799      41.35525      14.75658      13.79463
    11  O(17)             -0.00329       1.99162       0.71066       0.66433
    12  H(1)               0.00002       0.10674       0.03809       0.03560
    13  C(13)             -0.00532      -5.98308      -2.13491      -1.99574
    14  H(1)               0.00022       0.97399       0.34754       0.32489
    15  H(1)               0.00392      17.50754       6.24713       5.83989
    16  H(1)               0.00297      13.28700       4.74113       4.43207
    17  C(13)             -0.01578     -17.73838      -6.32949      -5.91689
    18  C(13)              0.02562      28.80362      10.27785       9.60785
    19  C(13)              0.02114      23.76308       8.47926       7.92651
    20  H(1)              -0.00280     -12.51735      -4.46650      -4.17534
    21  C(13)             -0.00617      -6.93518      -2.47465      -2.31333
    22  H(1)               0.00019       0.86799       0.30972       0.28953
    23  H(1)               0.00449      20.05778       7.15712       6.69056
    24  H(1)               0.00557      24.88976       8.88129       8.30233
    25  C(13)              0.00218       2.45474       0.87591       0.81881
    26  H(1)              -0.00149      -6.66405      -2.37790      -2.22289
    27  H(1)              -0.00182      -8.15635      -2.91039      -2.72067
    28  H(1)              -0.00016      -0.71517      -0.25519      -0.23856
    29  H(1)               0.00714      31.92472      11.39154      10.64894
 --------------------------------------------------------
       Center         ----  Spin Dipole Couplings  ----
                      3XX-RR        3YY-RR        3ZZ-RR
 --------------------------------------------------------
     1   Atom       -0.001385      0.002353     -0.000968
     2   Atom       -0.044136      0.015659      0.028476
     3   Atom        0.002769      0.083488     -0.086257
     4   Atom        0.013235     -0.006614     -0.006621
     5   Atom        0.003512      0.003576     -0.007087
     6   Atom        0.003480     -0.002946     -0.000534
     7   Atom        0.019071      0.012632     -0.031703
     8   Atom        0.000164      0.002658     -0.002822
     9   Atom       -0.228279      0.464405     -0.236126
    10   Atom       -0.013815      0.092527     -0.078712
    11   Atom        0.007864     -0.001881     -0.005983
    12   Atom        0.001462     -0.003069      0.001606
    13   Atom       -0.004656     -0.000862      0.005519
    14   Atom       -0.002186     -0.000862      0.003048
    15   Atom       -0.003419      0.000123      0.003296
    16   Atom       -0.002867     -0.001409      0.004276
    17   Atom        0.016186     -0.004570     -0.011616
    18   Atom       -0.045159      0.025638      0.019521
    19   Atom       -0.042715      0.032436      0.010279
    20   Atom       -0.001287     -0.001213      0.002500
    21   Atom        0.001336      0.000406     -0.001741
    22   Atom        0.002500     -0.001631     -0.000868
    23   Atom        0.001930     -0.000526     -0.001404
    24   Atom       -0.000119      0.002523     -0.002404
    25   Atom       -0.001182      0.002018     -0.000836
    26   Atom       -0.000995      0.001702     -0.000707
    27   Atom       -0.001067      0.001008      0.000059
    28   Atom       -0.001471      0.002244     -0.000773
    29   Atom        0.006558     -0.006085     -0.000473
 --------------------------------------------------------
                        XY            XZ            YZ
 --------------------------------------------------------
     1   Atom        0.022978     -0.025924      0.023926
     2   Atom       -0.088006      0.088665     -0.123719
     3   Atom       -0.330313      0.143967     -0.232687
     4   Atom        0.040070     -0.035492      0.046379
     5   Atom       -0.030022      0.006611     -0.018400
     6   Atom       -0.001889      0.005788     -0.001229
     7   Atom       -0.006744      0.032892     -0.005726
     8   Atom       -0.000532      0.002692     -0.001408
     9   Atom        0.042010      0.036204      0.133735
    10   Atom       -0.046947      0.064537      0.011989
    11   Atom        0.023447     -0.031405      0.031575
    12   Atom       -0.000548     -0.003541     -0.001292
    13   Atom       -0.000330      0.001039      0.001369
    14   Atom        0.002055      0.003054      0.002027
    15   Atom       -0.001149     -0.001550      0.003402
    16   Atom       -0.000018      0.000003      0.001685
    17   Atom        0.038494     -0.040449      0.047181
    18   Atom       -0.095995      0.098128     -0.143269
    19   Atom       -0.088779      0.078028     -0.116090
    20   Atom       -0.011237     -0.009120      0.001309
    21   Atom        0.001527      0.000964     -0.003510
    22   Atom        0.001161     -0.002394     -0.001114
    23   Atom        0.003030      0.001444      0.000460
    24   Atom        0.002687     -0.000491     -0.001158
    25   Atom        0.001394     -0.000722      0.002190
    26   Atom        0.000212     -0.000268      0.001114
    27   Atom        0.001256      0.000113      0.001420
    28   Atom        0.000623      0.000291      0.001694
    29   Atom       -0.005487      0.008139     -0.001275
 --------------------------------------------------------


 ---------------------------------------------------------------------------------
              Anisotropic Spin Dipole Couplings in Principal Axis System
 ---------------------------------------------------------------------------------

       Atom             a.u.   MegaHertz   Gauss  10(-4) cm-1        Axes

              Baa    -0.0487    -6.530    -2.330    -2.178  0.5910 -0.5451  0.5947
     1 C(13)  Bbb     0.0235     3.159     1.127     1.054  0.6820  0.7313 -0.0074
              Bcc     0.0251     3.372     1.203     1.125 -0.4308  0.4100  0.8039
 
              Baa    -0.1072   -14.383    -5.132    -4.798  0.8140  0.5809 -0.0023
     2 C(13)  Bbb    -0.1007   -13.510    -4.821    -4.506 -0.3744  0.5277  0.7625
              Bcc     0.2079    27.893     9.953     9.304  0.4441 -0.6198  0.6470
 
              Baa    -0.3083   -41.367   -14.761   -13.799  0.5913  0.7174  0.3684
     3 C(13)  Bbb    -0.1921   -25.784    -9.200    -8.601 -0.5571  0.0330  0.8298
              Bcc     0.5004    67.151    23.961    22.399 -0.5831  0.6959 -0.4191
 
              Baa    -0.0828   -11.106    -3.963    -3.704 -0.4866  0.6267 -0.6086
     4 C(13)  Bbb     0.0381     5.117     1.826     1.707 -0.4349  0.4304  0.7910
              Bcc     0.0446     5.989     2.137     1.998  0.7577  0.6496  0.0631
 
              Baa    -0.0303    -4.062    -1.449    -1.355  0.5590  0.7197  0.4118
     5 C(13)  Bbb    -0.0100    -1.348    -0.481    -0.450 -0.5411 -0.0596  0.8388
              Bcc     0.0403     5.410     1.930     1.805 -0.6282  0.6917 -0.3561
 
              Baa    -0.0047    -2.486    -0.887    -0.829 -0.5891 -0.0722  0.8048
     6 H(1)   Bbb    -0.0034    -1.814    -0.647    -0.605  0.1204  0.9770  0.1758
              Bcc     0.0081     4.300     1.534     1.434  0.7991 -0.2005  0.5668
 
              Baa    -0.0479    -6.434    -2.296    -2.146 -0.4374  0.0362  0.8986
     7 C(13)  Bbb     0.0098     1.318     0.470     0.439  0.3025  0.9469  0.1091
              Bcc     0.0381     5.116     1.826     1.707  0.8469 -0.3195  0.4251
 
              Baa    -0.0045    -2.420    -0.863    -0.807 -0.4812  0.1339  0.8663
     8 H(1)   Bbb     0.0010     0.531     0.190     0.177  0.7695  0.5380  0.3442
              Bcc     0.0035     1.888     0.674     0.630 -0.4200  0.8322 -0.3619
 
              Baa    -0.2777   -11.384    -4.062    -3.797 -0.5162 -0.1235  0.8475
     9 S(33)  Bbb    -0.2146    -8.798    -3.139    -2.935  0.8539 -0.1509  0.4981
              Bcc     0.4923    20.182     7.201     6.732  0.0664  0.9808  0.1834
 
              Baa    -0.1243    -4.794    -1.711    -1.599 -0.5486 -0.1641  0.8198
    10 N(14)  Bbb     0.0132     0.508     0.181     0.169  0.7431  0.3538  0.5681
              Bcc     0.1111     4.286     1.529     1.430 -0.3833  0.9208 -0.0721
 
              Baa    -0.0585     4.233     1.511     1.412  0.5072 -0.5703  0.6461
    11 O(17)  Bbb     0.0252    -1.824    -0.651    -0.608  0.4738  0.8108  0.3437
              Bcc     0.0333    -2.410    -0.860    -0.804  0.7199 -0.1319 -0.6815
 
              Baa    -0.0040    -2.113    -0.754    -0.705  0.3595  0.8323  0.4218
    12 H(1)   Bbb    -0.0012    -0.615    -0.219    -0.205  0.6288 -0.5501  0.5495
              Bcc     0.0051     2.728     0.973     0.910 -0.6894 -0.0677  0.7212
 
              Baa    -0.0048    -0.647    -0.231    -0.216  0.9858  0.1220 -0.1153
    13 C(13)  Bbb    -0.0011    -0.143    -0.051    -0.048 -0.1416  0.9734 -0.1800
              Bcc     0.0059     0.790     0.282     0.263  0.0903  0.1938  0.9769
 
              Baa    -0.0040    -2.156    -0.769    -0.719  0.8780 -0.3993 -0.2641
    14 H(1)   Bbb    -0.0016    -0.833    -0.297    -0.278  0.2230  0.8293 -0.5124
              Bcc     0.0056     2.988     1.066     0.997  0.4236  0.3910  0.8171
 
              Baa    -0.0038    -2.042    -0.729    -0.681  0.9765  0.1714  0.1306
    15 H(1)   Bbb    -0.0020    -1.086    -0.387    -0.362 -0.0721  0.8311 -0.5515
              Bcc     0.0059     3.128     1.116     1.043 -0.2031  0.5291  0.8239
 
              Baa    -0.0029    -1.530    -0.546    -0.510  0.9998  0.0176 -0.0046
    16 H(1)   Bbb    -0.0019    -0.998    -0.356    -0.333 -0.0181  0.9643 -0.2643
              Bcc     0.0047     2.528     0.902     0.843 -0.0002  0.2643  0.9644
 
              Baa    -0.0859   -11.531    -4.115    -3.846  0.4797 -0.5988  0.6413
    17 C(13)  Bbb     0.0392     5.256     1.876     1.753 -0.0698  0.7025  0.7082
              Bcc     0.0468     6.275     2.239     2.093  0.8746  0.3845 -0.2952
 
              Baa    -0.1215   -16.309    -5.819    -5.440 -0.2623  0.5798  0.7714
    18 C(13)  Bbb    -0.1119   -15.022    -5.360    -5.011  0.8579  0.5062 -0.0887
              Bcc     0.2335    31.331    11.180    10.451 -0.4419  0.6385 -0.6302
 
              Baa    -0.1016   -13.637    -4.866    -4.549  0.8637  0.4964 -0.0872
    19 C(13)  Bbb    -0.0948   -12.717    -4.538    -4.242 -0.2402  0.5575  0.7946
              Bcc     0.1964    26.353     9.404     8.791 -0.4431  0.6654 -0.6008
 
              Baa    -0.0146    -7.764    -2.771    -2.590  0.7336  0.5839  0.3476
    20 H(1)   Bbb    -0.0003    -0.147    -0.052    -0.049  0.1414 -0.6315  0.7624
              Bcc     0.0148     7.911     2.823     2.639  0.6647 -0.5102 -0.5459
 
              Baa    -0.0048    -0.645    -0.230    -0.215 -0.2666  0.5910  0.7613
    21 C(13)  Bbb     0.0015     0.205     0.073     0.068  0.8841 -0.1646  0.4374
              Bcc     0.0033     0.440     0.157     0.147  0.3838  0.7897 -0.4787
 
              Baa    -0.0025    -1.343    -0.479    -0.448  0.1945  0.6586  0.7270
    22 H(1)   Bbb    -0.0016    -0.874    -0.312    -0.292 -0.4923  0.7065 -0.5084
              Bcc     0.0042     2.218     0.791     0.740  0.8484  0.2590 -0.4616
 
              Baa    -0.0027    -1.464    -0.522    -0.488 -0.5830  0.7171  0.3821
    23 H(1)   Bbb    -0.0016    -0.852    -0.304    -0.284  0.0254 -0.4539  0.8907
              Bcc     0.0043     2.317     0.827     0.773  0.8121  0.5289  0.2464
 
              Baa    -0.0027    -1.426    -0.509    -0.476 -0.0893  0.2604  0.9614
    24 H(1)   Bbb    -0.0017    -0.934    -0.333    -0.311  0.8524 -0.4793  0.2090
              Bcc     0.0044     2.360     0.842     0.787  0.5152  0.8381 -0.1792
 
              Baa    -0.0030    -0.404    -0.144    -0.135  0.6037 -0.4529  0.6561
    25 C(13)  Bbb    -0.0004    -0.050    -0.018    -0.017  0.7711  0.1227 -0.6248
              Bcc     0.0034     0.455     0.162     0.152  0.2025  0.8831  0.4233
 
              Baa    -0.0014    -0.750    -0.267    -0.250  0.6257 -0.3008  0.7198
    26 H(1)   Bbb    -0.0007    -0.393    -0.140    -0.131  0.7794  0.2031 -0.5927
              Bcc     0.0021     1.142     0.408     0.381  0.0321  0.9318  0.3615
 
              Baa    -0.0018    -0.983    -0.351    -0.328  0.7870 -0.5157  0.3386
    27 H(1)   Bbb    -0.0005    -0.290    -0.103    -0.097 -0.5337 -0.2939  0.7930
              Bcc     0.0024     1.273     0.454     0.424  0.3094  0.8048  0.5065
 
              Baa    -0.0016    -0.841    -0.300    -0.281  0.9636 -0.0400 -0.2642
    28 H(1)   Bbb    -0.0015    -0.816    -0.291    -0.272  0.2221 -0.4295  0.8753
              Bcc     0.0031     1.658     0.591     0.553  0.1485  0.9022  0.4050
 
              Baa    -0.0087    -4.663    -1.664    -1.555  0.4724  0.8133 -0.3397
    29 H(1)   Bbb    -0.0046    -2.465    -0.880    -0.822 -0.3224  0.5182  0.7921
              Bcc     0.0134     7.128     2.543     2.378  0.8203 -0.2647  0.5071
 

 ---------------------------------------------------------------------------------

 Unable to Open any file for archive entry.
 1\1\GINC-EXP-1-29\FTS\UB3LYP\6-31G(d,p)\C12H14N1O1S1(2)\JCUZICK\05-May
 -2026\0\\# opt=(calcfc,ts,noeigen) freq=noraman ub3lyp/6-31g(d,p) nosy
 mm guess=mix empiricaldispersion=gd3\\CuL_subs\\0,2\C,4.8123162987,-2.
 1193761722,1.8320286961\C,3.9513335145,-1.8315205241,2.919972058\C,4.0
 306721077,-0.5451895178,0.4293233222\C,2.7765697547,-2.5796437478,3.03
 60128877\C,2.4205044947,0.4011272288,-0.7457606589\H,1.5390142305,0.34
 86328541,-1.3743456008\C,3.0378424701,1.5532817159,-0.3605451529\H,2.7
 723100377,2.5721560731,-0.6064949464\S,4.4194485654,1.1677677631,0.641
 5578098\N,2.9895176732,-0.7759087571,-0.2758312479\O,1.8610855614,-2.3
 162374733,4.0255402369\H,2.0907309942,-1.4877936008,4.4628796071\C,4.2
 398147128,-0.6889535177,3.8589153588\H,5.2467625219,-0.2961806421,3.69
 9930354\H,3.5481926252,0.1516743482,3.7063702813\H,4.1737723019,-0.995
 84903,4.9111521106\C,3.4123145243,-3.9915017727,1.1598263999\C,2.48008
 72518,-3.6490212207,2.1678273841\C,4.5783813295,-3.2536567234,1.022694
 9569\H,5.2891277507,-3.5003930184,0.240662561\C,1.1941073862,-4.419442
 2826,2.3199330659\H,0.5488946077,-3.9749035567,3.0766552316\H,0.643941
 486,-4.4518642631,1.3726356088\H,1.3884294269,-5.4604277405,2.60783541
 97\C,3.1292473298,-5.1489570139,0.2345491756\H,2.9364715079,-6.0754253
 188,0.7875612339\H,2.2417557594,-4.9537656221,-0.3789791038\H,3.968387
 0129,-5.3266360218,-0.4424421424\H,5.7924627626,-1.6521354457,1.814218
 0933\\Version=ES64L-G16RevC.01\HF=-993.8248987\S2=0.775068\S2-1=0.\S2A
 =0.750468\RMSD=4.487e-09\RMSF=8.519e-07\Dipole=0.0211149,0.2524328,0.4
 649125\Quadrupole=-1.9524907,0.4781572,1.4743336,-0.0421943,5.0628577,
 1.8290724\PG=C01 [X(C12H14N1O1S1)]\\@
 The archive entry for this job was punched.


 EVANS BOLDLY PUT 50 ATM. OF ETHYLENE IN A CELL WITH 25 ATM. OF OXYGEN.
 THE APPARATUS SUBSEQUENTLY BLEW UP, BUT LUCKILY NOT BEFORE HE
 OBTAINED THE SPECTRA SHOWN IN FIGURE 8.
 A.J.MERER AND R.S.MULLIKEN, CHEM.REV. 69, 645 (1969)
 Job cpu time:       0 days  2 hours 43 minutes 35.2 seconds.
 Elapsed time:       0 days  0 hours 10 minutes 31.9 seconds.
 File lengths (MBytes):  RWF=    569 Int=      0 D2E=      0 Chk=     12 Scr=      1
 Normal termination of Gaussian 16 at Tue May  5 15:15:36 2026.
 Link1:  Proceeding to internal job step number  2.
 ----------------------------------------------------------------------
 #N Geom=AllCheck Guess=TCheck SCRF=Check GenChk UB3LYP/6-31G(d,p) Freq
 ----------------------------------------------------------------------
 1/5=1,10=4,11=1,29=7,30=1,38=1,40=1/1,3;
 2/12=2,15=1,40=1/2;
 3/5=1,6=6,7=101,11=2,14=-4,25=1,30=1,70=2,71=2,74=-5,116=2,124=31,140=1/1,2,3;
 4/5=101/1;
 5/5=2,38=6,98=1/2;
 8/6=4,10=90,11=11/1;
 11/6=1,8=1,9=11,15=111,16=1,31=1/1,2,10;
 10/6=1,31=1/2;
 6/7=2,8=2,9=2,10=2,28=1/1;
 7/8=1,10=1,25=1,30=1/1,2,3,16;
 1/5=1,10=4,11=1,30=1/3;
 99//99;
 Structure from the checkpoint file:  "/scratch/jcuzick/job_48780647/Gau-2329488.chk"
 --------
 CuL_subs
 --------
 Charge =  0 Multiplicity = 2
 Redundant internal coordinates found in file.  (old form).
 C,0,4.8123162987,-2.1193761722,1.8320286961
 C,0,3.9513335145,-1.8315205241,2.919972058
 C,0,4.0306721077,-0.5451895178,0.4293233222
 C,0,2.7765697547,-2.5796437478,3.0360128877
 C,0,2.4205044947,0.4011272288,-0.7457606589
 H,0,1.5390142305,0.3486328541,-1.3743456008
 C,0,3.0378424701,1.5532817159,-0.3605451529
 H,0,2.7723100377,2.5721560731,-0.6064949464
 S,0,4.4194485654,1.1677677631,0.6415578098
 N,0,2.9895176732,-0.7759087571,-0.2758312479
 O,0,1.8610855614,-2.3162374733,4.0255402369
 H,0,2.0907309942,-1.4877936008,4.4628796071
 C,0,4.2398147128,-0.6889535177,3.8589153588
 H,0,5.2467625219,-0.2961806421,3.699930354
 H,0,3.5481926252,0.1516743482,3.7063702813
 H,0,4.1737723019,-0.99584903,4.9111521106
 C,0,3.4123145243,-3.9915017727,1.1598263999
 C,0,2.4800872518,-3.6490212207,2.1678273841
 C,0,4.5783813295,-3.2536567234,1.0226949569
 H,0,5.2891277507,-3.5003930184,0.240662561
 C,0,1.1941073862,-4.4194422826,2.3199330659
 H,0,0.5488946077,-3.9749035567,3.0766552316
 H,0,0.643941486,-4.4518642631,1.3726356088
 H,0,1.3884294269,-5.4604277405,2.6078354197
 C,0,3.1292473298,-5.1489570139,0.2345491756
 H,0,2.9364715079,-6.0754253188,0.7875612339
 H,0,2.2417557594,-4.9537656221,-0.3789791038
 H,0,3.9683870129,-5.3266360218,-0.4424421424
 H,0,5.7924627626,-1.6521354457,1.8142180933
 Recover connectivity data from disk.

 GradGradGradGradGradGradGradGradGradGradGradGradGradGradGradGradGradGrad
 Berny optimization.
 Initialization pass.
                           ----------------------------
                           !    Initial Parameters    !
                           ! (Angstroms and Degrees)  !
 --------------------------                            --------------------------
 ! Name  Definition              Value          Derivative Info.                !
 --------------------------------------------------------------------------------
 ! R1    R(1,2)                  1.417          calculate D2E/DX2 analytically  !
 ! R2    R(1,3)                  2.2487         calculate D2E/DX2 analytically  !
 ! R3    R(1,19)                 1.4129         calculate D2E/DX2 analytically  !
 ! R4    R(1,29)                 1.086          calculate D2E/DX2 analytically  !
 ! R5    R(2,4)                  1.3976         calculate D2E/DX2 analytically  !
 ! R6    R(2,13)                 1.5067         calculate D2E/DX2 analytically  !
 ! R7    R(3,9)                  1.7693         calculate D2E/DX2 analytically  !
 ! R8    R(3,10)                 1.2785         calculate D2E/DX2 analytically  !
 ! R9    R(4,11)                 1.3736         calculate D2E/DX2 analytically  !
 ! R10   R(4,18)                 1.409          calculate D2E/DX2 analytically  !
 ! R11   R(5,6)                  1.0839         calculate D2E/DX2 analytically  !
 ! R12   R(5,7)                  1.3627         calculate D2E/DX2 analytically  !
 ! R13   R(5,10)                 1.3893         calculate D2E/DX2 analytically  !
 ! R14   R(7,8)                  1.0813         calculate D2E/DX2 analytically  !
 ! R15   R(7,9)                  1.7498         calculate D2E/DX2 analytically  !
 ! R16   R(11,12)                0.9645         calculate D2E/DX2 analytically  !
 ! R17   R(13,14)                1.0925         calculate D2E/DX2 analytically  !
 ! R18   R(13,15)                1.0992         calculate D2E/DX2 analytically  !
 ! R19   R(13,16)                1.0981         calculate D2E/DX2 analytically  !
 ! R20   R(17,18)                1.4151         calculate D2E/DX2 analytically  !
 ! R21   R(17,19)                1.3867         calculate D2E/DX2 analytically  !
 ! R22   R(17,25)                1.5086         calculate D2E/DX2 analytically  !
 ! R23   R(18,21)                1.5068         calculate D2E/DX2 analytically  !
 ! R24   R(19,20)                1.0852         calculate D2E/DX2 analytically  !
 ! R25   R(21,22)                1.0893         calculate D2E/DX2 analytically  !
 ! R26   R(21,23)                1.0959         calculate D2E/DX2 analytically  !
 ! R27   R(21,24)                1.0974         calculate D2E/DX2 analytically  !
 ! R28   R(25,26)                1.0961         calculate D2E/DX2 analytically  !
 ! R29   R(25,27)                1.0964         calculate D2E/DX2 analytically  !
 ! R30   R(25,28)                1.0927         calculate D2E/DX2 analytically  !
 ! A1    A(2,1,3)               97.2108         calculate D2E/DX2 analytically  !
 ! A2    A(2,1,19)             120.1515         calculate D2E/DX2 analytically  !
 ! A3    A(2,1,29)             118.2686         calculate D2E/DX2 analytically  !
 ! A4    A(3,1,19)              98.4605         calculate D2E/DX2 analytically  !
 ! A5    A(3,1,29)              90.1318         calculate D2E/DX2 analytically  !
 ! A6    A(19,1,29)            119.0417         calculate D2E/DX2 analytically  !
 ! A7    A(1,2,4)              117.7593         calculate D2E/DX2 analytically  !
 ! A8    A(1,2,13)             121.076          calculate D2E/DX2 analytically  !
 ! A9    A(4,2,13)             121.0049         calculate D2E/DX2 analytically  !
 ! A10   A(1,3,9)              121.7725         calculate D2E/DX2 analytically  !
 ! A11   A(1,3,10)             120.053          calculate D2E/DX2 analytically  !
 ! A12   A(9,3,10)             114.8238         calculate D2E/DX2 analytically  !
 ! A13   A(2,4,11)             121.1585         calculate D2E/DX2 analytically  !
 ! A14   A(2,4,18)             122.1403         calculate D2E/DX2 analytically  !
 ! A15   A(11,4,18)            116.6926         calculate D2E/DX2 analytically  !
 ! A16   A(6,5,7)              124.9804         calculate D2E/DX2 analytically  !
 ! A17   A(6,5,10)             119.2235         calculate D2E/DX2 analytically  !
 ! A18   A(7,5,10)             115.7959         calculate D2E/DX2 analytically  !
 ! A19   A(5,7,8)              128.401          calculate D2E/DX2 analytically  !
 ! A20   A(5,7,9)              109.4705         calculate D2E/DX2 analytically  !
 ! A21   A(8,7,9)              122.1268         calculate D2E/DX2 analytically  !
 ! A22   A(3,9,7)               88.3443         calculate D2E/DX2 analytically  !
 ! A23   A(3,10,5)             111.5448         calculate D2E/DX2 analytically  !
 ! A24   A(4,11,12)            109.4312         calculate D2E/DX2 analytically  !
 ! A25   A(2,13,14)            111.0028         calculate D2E/DX2 analytically  !
 ! A26   A(2,13,15)            111.8987         calculate D2E/DX2 analytically  !
 ! A27   A(2,13,16)            111.944          calculate D2E/DX2 analytically  !
 ! A28   A(14,13,15)           106.5467         calculate D2E/DX2 analytically  !
 ! A29   A(14,13,16)           107.1799         calculate D2E/DX2 analytically  !
 ! A30   A(15,13,16)           107.9918         calculate D2E/DX2 analytically  !
 ! A31   A(18,17,19)           119.7117         calculate D2E/DX2 analytically  !
 ! A32   A(18,17,25)           119.9318         calculate D2E/DX2 analytically  !
 ! A33   A(19,17,25)           120.355          calculate D2E/DX2 analytically  !
 ! A34   A(4,18,17)            118.9466         calculate D2E/DX2 analytically  !
 ! A35   A(4,18,21)            120.3611         calculate D2E/DX2 analytically  !
 ! A36   A(17,18,21)           120.6909         calculate D2E/DX2 analytically  !
 ! A37   A(1,19,17)            120.6463         calculate D2E/DX2 analytically  !
 ! A38   A(1,19,20)            119.136          calculate D2E/DX2 analytically  !
 ! A39   A(17,19,20)           120.0685         calculate D2E/DX2 analytically  !
 ! A40   A(18,21,22)           111.5301         calculate D2E/DX2 analytically  !
 ! A41   A(18,21,23)           110.8734         calculate D2E/DX2 analytically  !
 ! A42   A(18,21,24)           111.1229         calculate D2E/DX2 analytically  !
 ! A43   A(22,21,23)           108.3725         calculate D2E/DX2 analytically  !
 ! A44   A(22,21,24)           108.0444         calculate D2E/DX2 analytically  !
 ! A45   A(23,21,24)           106.7139         calculate D2E/DX2 analytically  !
 ! A46   A(17,25,26)           111.8431         calculate D2E/DX2 analytically  !
 ! A47   A(17,25,27)           111.0074         calculate D2E/DX2 analytically  !
 ! A48   A(17,25,28)           111.1398         calculate D2E/DX2 analytically  !
 ! A49   A(26,25,27)           106.8846         calculate D2E/DX2 analytically  !
 ! A50   A(26,25,28)           108.0721         calculate D2E/DX2 analytically  !
 ! A51   A(27,25,28)           107.6898         calculate D2E/DX2 analytically  !
 ! D1    D(3,1,2,4)             94.9586         calculate D2E/DX2 analytically  !
 ! D2    D(3,1,2,13)           -80.4917         calculate D2E/DX2 analytically  !
 ! D3    D(19,1,2,4)            -9.2232         calculate D2E/DX2 analytically  !
 ! D4    D(19,1,2,13)          175.3266         calculate D2E/DX2 analytically  !
 ! D5    D(29,1,2,4)          -170.989          calculate D2E/DX2 analytically  !
 ! D6    D(29,1,2,13)           13.5607         calculate D2E/DX2 analytically  !
 ! D7    D(2,1,3,9)             74.7844         calculate D2E/DX2 analytically  !
 ! D8    D(2,1,3,10)           -83.4774         calculate D2E/DX2 analytically  !
 ! D9    D(19,1,3,9)          -163.164          calculate D2E/DX2 analytically  !
 ! D10   D(19,1,3,10)           38.5741         calculate D2E/DX2 analytically  !
 ! D11   D(29,1,3,9)           -43.7491         calculate D2E/DX2 analytically  !
 ! D12   D(29,1,3,10)          157.989          calculate D2E/DX2 analytically  !
 ! D13   D(2,1,19,17)            8.9755         calculate D2E/DX2 analytically  !
 ! D14   D(2,1,19,20)         -175.4617         calculate D2E/DX2 analytically  !
 ! D15   D(3,1,19,17)          -94.5078         calculate D2E/DX2 analytically  !
 ! D16   D(3,1,19,20)           81.055          calculate D2E/DX2 analytically  !
 ! D17   D(29,1,19,17)         170.6016         calculate D2E/DX2 analytically  !
 ! D18   D(29,1,19,20)         -13.8356         calculate D2E/DX2 analytically  !
 ! D19   D(1,2,4,11)          -176.826          calculate D2E/DX2 analytically  !
 ! D20   D(1,2,4,18)             4.276          calculate D2E/DX2 analytically  !
 ! D21   D(13,2,4,11)           -1.3723         calculate D2E/DX2 analytically  !
 ! D22   D(13,2,4,18)          179.7297         calculate D2E/DX2 analytically  !
 ! D23   D(1,2,13,14)          -11.4159         calculate D2E/DX2 analytically  !
 ! D24   D(1,2,13,15)          107.473          calculate D2E/DX2 analytically  !
 ! D25   D(1,2,13,16)         -131.1374         calculate D2E/DX2 analytically  !
 ! D26   D(4,2,13,14)          173.2817         calculate D2E/DX2 analytically  !
 ! D27   D(4,2,13,15)          -67.8294         calculate D2E/DX2 analytically  !
 ! D28   D(4,2,13,16)           53.5602         calculate D2E/DX2 analytically  !
 ! D29   D(1,3,9,7)           -160.523          calculate D2E/DX2 analytically  !
 ! D30   D(10,3,9,7)            -1.2068         calculate D2E/DX2 analytically  !
 ! D31   D(1,3,10,5)           161.2974         calculate D2E/DX2 analytically  !
 ! D32   D(9,3,10,5)             1.5964         calculate D2E/DX2 analytically  !
 ! D33   D(2,4,11,12)           10.1431         calculate D2E/DX2 analytically  !
 ! D34   D(18,4,11,12)        -170.9014         calculate D2E/DX2 analytically  !
 ! D35   D(2,4,18,17)            1.0967         calculate D2E/DX2 analytically  !
 ! D36   D(2,4,18,21)         -179.3334         calculate D2E/DX2 analytically  !
 ! D37   D(11,4,18,17)        -177.8478         calculate D2E/DX2 analytically  !
 ! D38   D(11,4,18,21)           1.7221         calculate D2E/DX2 analytically  !
 ! D39   D(6,5,7,8)             -0.3063         calculate D2E/DX2 analytically  !
 ! D40   D(6,5,7,9)           -179.8256         calculate D2E/DX2 analytically  !
 ! D41   D(10,5,7,8)           179.8595         calculate D2E/DX2 analytically  !
 ! D42   D(10,5,7,9)             0.3401         calculate D2E/DX2 analytically  !
 ! D43   D(6,5,10,3)           178.8906         calculate D2E/DX2 analytically  !
 ! D44   D(7,5,10,3)            -1.265          calculate D2E/DX2 analytically  !
 ! D45   D(5,7,9,3)              0.4291         calculate D2E/DX2 analytically  !
 ! D46   D(8,7,9,3)           -179.1261         calculate D2E/DX2 analytically  !
 ! D47   D(19,17,18,4)          -1.5839         calculate D2E/DX2 analytically  !
 ! D48   D(19,17,18,21)        178.8476         calculate D2E/DX2 analytically  !
 ! D49   D(25,17,18,4)         178.8604         calculate D2E/DX2 analytically  !
 ! D50   D(25,17,18,21)         -0.708          calculate D2E/DX2 analytically  !
 ! D51   D(18,17,19,1)          -3.4134         calculate D2E/DX2 analytically  !
 ! D52   D(18,17,19,20)       -178.9348         calculate D2E/DX2 analytically  !
 ! D53   D(25,17,19,1)         176.1404         calculate D2E/DX2 analytically  !
 ! D54   D(25,17,19,20)          0.6189         calculate D2E/DX2 analytically  !
 ! D55   D(18,17,25,26)        -55.4369         calculate D2E/DX2 analytically  !
 ! D56   D(18,17,25,27)         63.8457         calculate D2E/DX2 analytically  !
 ! D57   D(18,17,25,28)       -176.3217         calculate D2E/DX2 analytically  !
 ! D58   D(19,17,25,26)        125.0103         calculate D2E/DX2 analytically  !
 ! D59   D(19,17,25,27)       -115.7071         calculate D2E/DX2 analytically  !
 ! D60   D(19,17,25,28)          4.1256         calculate D2E/DX2 analytically  !
 ! D61   D(4,18,21,22)           5.7223         calculate D2E/DX2 analytically  !
 ! D62   D(4,18,21,23)         126.5914         calculate D2E/DX2 analytically  !
 ! D63   D(4,18,21,24)        -114.9006         calculate D2E/DX2 analytically  !
 ! D64   D(17,18,21,22)       -174.7154         calculate D2E/DX2 analytically  !
 ! D65   D(17,18,21,23)        -53.8463         calculate D2E/DX2 analytically  !
 ! D66   D(17,18,21,24)         64.6618         calculate D2E/DX2 analytically  !
 --------------------------------------------------------------------------------
 Trust Radius=3.00D-01 FncErr=1.00D-07 GrdErr=1.00D-07 EigMax=2.50D+02 EigMin=1.00D-04
 Number of steps in this run=      2 maximum allowed number of steps=      2.
 Search for a saddle point of order  1.
 GradGradGradGradGradGradGradGradGradGradGradGradGradGradGradGradGradGrad

                          Input orientation:                          
 ---------------------------------------------------------------------
 Center     Atomic      Atomic             Coordinates (Angstroms)
 Number     Number       Type             X           Y           Z
 ---------------------------------------------------------------------
      1          6           0        4.812316   -2.119376    1.832029
      2          6           0        3.951334   -1.831521    2.919972
      3          6           0        4.030672   -0.545190    0.429323
      4          6           0        2.776570   -2.579644    3.036013
      5          6           0        2.420504    0.401127   -0.745761
      6          1           0        1.539014    0.348633   -1.374346
      7          6           0        3.037842    1.553282   -0.360545
      8          1           0        2.772310    2.572156   -0.606495
      9         16           0        4.419449    1.167768    0.641558
     10          7           0        2.989518   -0.775909   -0.275831
     11          8           0        1.861086   -2.316237    4.025540
     12          1           0        2.090731   -1.487794    4.462880
     13          6           0        4.239815   -0.688954    3.858915
     14          1           0        5.246763   -0.296181    3.699930
     15          1           0        3.548193    0.151674    3.706370
     16          1           0        4.173772   -0.995849    4.911152
     17          6           0        3.412315   -3.991502    1.159826
     18          6           0        2.480087   -3.649021    2.167827
     19          6           0        4.578381   -3.253657    1.022695
     20          1           0        5.289128   -3.500393    0.240663
     21          6           0        1.194107   -4.419442    2.319933
     22          1           0        0.548895   -3.974904    3.076655
     23          1           0        0.643941   -4.451864    1.372636
     24          1           0        1.388429   -5.460428    2.607835
     25          6           0        3.129247   -5.148957    0.234549
     26          1           0        2.936472   -6.075425    0.787561
     27          1           0        2.241756   -4.953766   -0.378979
     28          1           0        3.968387   -5.326636   -0.442442
     29          1           0        5.792463   -1.652135    1.814218
 ---------------------------------------------------------------------
                    Distance matrix (angstroms):
                    1          2          3          4          5
     1  C    0.000000
     2  C    1.416959   0.000000
     3  C    2.248692   2.804331   0.000000
     4  C    2.409500   1.397578   3.536468   0.000000
     5  C    4.326511   4.556945   2.206576   4.828415   0.000000
     6  H    5.204461   5.386420   3.203201   5.436691   1.083928
     7  C    4.630826   4.801369   2.452180   5.355926   1.362702
     8  H    5.667318   5.763543   3.517704   6.309431   2.203753
     9  S    3.518079   3.795528   1.769297   4.740839   2.551111
    10  N    3.093634   3.500366   1.278467   3.777184   1.389253
    11  O    3.682392   2.413787   4.558124   1.373557   5.519269
    12  H    3.837616   2.441425   4.573997   1.923138   5.550379
    13  C    2.546004   1.506750   3.438969   2.528431   5.069636
    14  H    2.646099   2.154934   3.498250   3.428825   5.313957
    15  H    3.204502   2.171176   3.384884   2.916313   4.599497
    16  H    3.339319   2.170858   4.506702   2.824310   6.084912
    17  C    2.432430   2.837988   3.576740   2.432610   4.889799
    18  C    2.809247   2.456338   3.880784   1.408977   4.989614
    19  C    1.412919   2.452615   2.826282   2.784649   4.597968
    20  H    2.160325   3.428342   3.217535   3.869717   4.942053
    21  C    4.315066   3.828796   5.160459   2.530181   5.842980
    22  H    4.813402   4.024330   5.558244   2.628866   6.104378
    23  H    4.798634   4.494362   5.255653   3.289398   5.585276
    24  H    4.846391   4.453636   5.990570   3.226327   6.831516
    25  C    3.816153   4.346574   4.695229   3.817584   5.680384
    26  H    4.501114   4.856732   5.648816   4.159518   6.675555
    27  H    4.419287   4.853262   4.825880   4.193406   5.370415
    28  H    4.021436   4.849944   4.860667   4.589776   5.940978
    29  H    1.085964   2.155140   2.499434   3.383588   4.705261
                    6          7          8          9         10
     6  H    0.000000
     7  C    2.173811   0.000000
     8  H    2.656063   1.081251   0.000000
     9  S    3.609952   1.749762   2.498601   0.000000
    10  N    2.138992   2.331231   3.371358   2.581508   0.000000
    11  O    6.030260   5.966212   6.795769   5.489522   4.706142
    12  H    6.144107   5.780189   6.530413   5.203598   4.875446
    13  C    5.979793   4.927089   5.720865   3.719015   4.320525
    14  H    6.317552   4.978685   5.735466   3.490163   4.596953
    15  H    5.467107   4.331831   5.006149   3.344340   4.126797
    16  H    6.946730   5.964830   6.718570   4.792810   5.325000
    17  C    5.363586   5.761630   6.827232   5.282138   3.546817
    18  C    5.423453   5.810999   6.818013   5.412216   3.806017
    19  C    5.287726   5.233858   6.313180   4.440667   3.217125
    20  H    5.611292   5.565013   6.627813   4.765373   3.602470
    21  C    6.041622   6.801305   7.741909   6.666085   4.820459
    22  H    6.283686   6.969221   7.834102   6.881712   5.237306
    23  H    5.602842   6.693015   7.601564   6.809493   4.661740
    24  H    7.044546   7.792558   8.761818   7.548927   5.729200
    25  C    5.944819   6.729227   7.774982   6.459976   4.404948
    26  H    6.920640   7.715283   8.760765   7.394889   5.405413
    27  H    5.440591   6.555590   7.548029   6.577006   4.245501
    28  H    6.243314   6.943046   7.990521   6.599681   4.657796
    29  H    5.679950   4.753128   5.729382   3.348455   3.604522
                   11         12         13         14         15
    11  O    0.000000
    12  H    0.964532   0.000000
    13  C    2.886896   2.370966   0.000000
    14  H    3.955940   3.458695   1.092470   0.000000
    15  H    3.006458   2.320421   1.099212   1.756632   0.000000
    16  H    2.806466   2.186783   1.098066   1.762924   1.777543
    17  C    3.664033   4.350322   4.344728   4.844866   4.865106
    18  C    2.368665   3.176439   3.836459   4.609053   4.237128
    19  C    4.156866   4.597994   3.838812   4.044872   4.456420
    20  H    5.242041   5.666341   4.700745   4.715433   5.327249
    21  C    2.788804   3.740417   5.055823   5.943879   5.325320
    22  H    2.318060   3.237992   5.003228   5.999286   5.140134
    23  H    3.616662   4.519792   5.768136   6.623592   5.922293
    24  H    3.481267   4.440297   5.697593   6.538261   6.112859
    25  C    4.899403   5.688709   5.853291   6.327889   6.350256
    26  H    5.076658   5.938822   6.336087   6.871609   6.904377
    27  H    5.147937   5.956456   6.335662   6.881909   6.668011
    28  H    5.784988   6.505727   6.331149   6.640706   6.884845
    29  H    4.559244   4.554694   2.742120   2.385857   3.445391
                   16         17         18         19         20
    16  H    0.000000
    17  C    4.860679   0.000000
    18  C    4.175371   1.415064   0.000000
    19  C    4.514588   1.386698   2.422907   0.000000
    20  H    5.415739   2.146737   3.409804   1.085179   0.000000
    21  C    5.226262   2.539572   1.506794   3.807255   4.683717
    22  H    5.037845   3.445821   2.159091   4.579925   5.544170
    23  H    6.076582   2.814447   2.155996   4.127708   4.874876
    24  H    5.744203   2.889738   2.160212   4.190263   4.965953
    25  C    6.341132   1.508631   2.531557   2.512633   2.717146
    26  H    6.658604   2.169734   2.828579   3.273153   3.530564
    27  H    6.883551   2.159649   2.871478   3.211679   3.432597
    28  H    6.889040   2.158487   3.441357   2.610740   2.355027
    29  H    3.555541   3.400878   3.883867   2.159947   2.479008
                   21         22         23         24         25
    21  C    0.000000
    22  H    1.089285   0.000000
    23  H    1.095950   1.772063   0.000000
    24  H    1.097406   1.769574   1.759881   0.000000
    25  C    2.936969   4.014248   2.820979   2.959721   0.000000
    26  H    2.850662   3.918248   2.869487   2.467398   1.096051
    27  H    2.944010   3.970561   2.423442   3.147369   1.096430
    28  H    4.018749   5.089612   3.887373   3.997283   1.092723
    29  H    5.390604   5.872308   5.877138   5.876090   4.670742
                   26         27         28         29
    26  H    0.000000
    27  H    1.761127   0.000000
    28  H    1.771565   1.767573   0.000000
    29  H    5.364346   5.321503   4.682064   0.000000
 Symmetry turned off by external request.
 Stoichiometry    C12H14NOS(2)
 Framework group  C1[X(C12H14NOS)]
 Deg. of freedom    81
 Full point group                 C1      NOp   1
 Rotational constants (GHZ):           0.8115267           0.3830230           0.3336033
 Standard basis: 6-31G(d,p) (6D, 7F)
   299 basis functions,   542 primitive gaussians,   299 cartesian basis functions
    59 alpha electrons       58 beta electrons
       nuclear repulsion energy      1077.7960603265 Hartrees.
 NAtoms=   29 NActive=   29 NUniq=   29 SFac= 1.00D+00 NAtFMM=   60 NAOKFM=F Big=F
 Integral buffers will be    131072 words long.
 Raffenetti 2 integral format.
 Two-electron integral symmetry is turned off.
 Nuclear repulsion after empirical dispersion term =     1077.7679590716 Hartrees.
 One-electron integrals computed using PRISM.
 NBasis=   299 RedAO= T EigKep=  4.02D-04  NBF=   299
 NBsUse=   299 1.00D-06 EigRej= -1.00D+00 NBFU=   299
 Initial guess from the checkpoint file:  "/scratch/jcuzick/job_48780647/Gau-2329488.chk"
 B after Tr=     0.000000    0.000000    0.000000
         Rot=    1.000000    0.000000    0.000000    0.000000 Ang=   0.00 deg.
 Initial guess <Sx>= 0.0000 <Sy>= 0.0000 <Sz>= 0.5000 <S**2>= 0.7751 S= 0.5125
 Requested convergence on RMS density matrix=1.00D-08 within 128 cycles.
 Requested convergence on MAX density matrix=1.00D-06.
 Requested convergence on             energy=1.00D-06.
 No special actions if energy rises.
 SCF Done:  E(UB3LYP) =  -993.824898720     A.U. after    1 cycles
            NFock=  1  Conv=0.45D-08     -V/T= 2.0070
 <Sx>= 0.0000 <Sy>= 0.0000 <Sz>= 0.5000 <S**2>= 0.7751 S= 0.5125
 <L.S>= 0.000000000000E+00
 Annihilation of the first spin contaminant:
 S**2 before annihilation     0.7751,   after     0.7505
 DoSCS=F DFT=T ScalE2(SS,OS)=  1.000000  1.000000
 Range of M.O.s used for correlation:     1   299
 NBasis=   299 NAE=    59 NBE=    58 NFC=     0 NFV=     0
 NROrb=    299 NOA=    59 NOB=    58 NVA=   240 NVB=   241
 Symmetrizing basis deriv contribution to polar:
 IMax=3 JMax=2 DiffMx= 0.00D+00
 G2DrvN: will do    30 centers at a time, making    1 passes.
 Calling FoFCou, ICntrl=  3107 FMM=F I1Cent=   0 AccDes= 0.00D+00.
 End of G2Drv F.D. properties file   721 does not exist.
 End of G2Drv F.D. properties file   722 does not exist.
 End of G2Drv F.D. properties file   788 does not exist.
          IDoAtm=11111111111111111111111111111
          Differentiating once with respect to electric field.
                with respect to dipole field.
          Differentiating once with respect to nuclear coordinates.
 Keep R1 and R2 ints in memory in canonical form, NReq=2029634078.
 CalDSu:  requested number of processors reduced to:  13 ShMem   1 Linda.
          There are    90 degrees of freedom in the 1st order CPHF.  IDoFFX=6 NUNeed=     3.
     87 vectors produced by pass  0 Test12= 3.13D-14 1.11D-09 XBig12= 4.88D+02 7.83D+00.
 AX will form    87 AO Fock derivatives at one time.
 CalDSu:  requested number of processors reduced to:  13 ShMem   1 Linda.
     87 vectors produced by pass  1 Test12= 3.13D-14 1.11D-09 XBig12= 1.05D+02 1.92D+00.
 CalDSu:  requested number of processors reduced to:  13 ShMem   1 Linda.
     87 vectors produced by pass  2 Test12= 3.13D-14 1.11D-09 XBig12= 1.96D+00 1.87D-01.
 CalDSu:  requested number of processors reduced to:  13 ShMem   1 Linda.
     87 vectors produced by pass  3 Test12= 3.13D-14 1.11D-09 XBig12= 1.84D-02 1.41D-02.
 CalDSu:  requested number of processors reduced to:  13 ShMem   1 Linda.
     87 vectors produced by pass  4 Test12= 3.13D-14 1.11D-09 XBig12= 1.35D-04 1.48D-03.
 CalDSu:  requested number of processors reduced to:  13 ShMem   1 Linda.
     87 vectors produced by pass  5 Test12= 3.13D-14 1.11D-09 XBig12= 7.04D-07 7.01D-05.
 CalDSu:  requested number of processors reduced to:  13 ShMem   1 Linda.
     57 vectors produced by pass  6 Test12= 3.13D-14 1.11D-09 XBig12= 2.90D-09 4.82D-06.
     19 vectors produced by pass  7 Test12= 3.13D-14 1.11D-09 XBig12= 9.59D-12 2.36D-07.
      3 vectors produced by pass  8 Test12= 3.13D-14 1.11D-09 XBig12= 3.17D-14 9.94D-09.
 InvSVY:  IOpt=1 It=  1 EMax= 1.07D-14
 Solved reduced A of dimension   601 with    90 vectors.
 Isotropic polarizability for W=    0.000000      161.33 Bohr**3.
 End of Minotr F.D. properties file   721 does not exist.
 End of Minotr F.D. properties file   722 does not exist.
 End of Minotr F.D. properties file   788 does not exist.

 **********************************************************************

            Population analysis using the SCF Density.

 **********************************************************************

 Alpha  occ. eigenvalues --  -88.90266 -19.17533 -14.32468 -10.24194 -10.24035
 Alpha  occ. eigenvalues --  -10.21441 -10.21033 -10.20409 -10.19663 -10.19543
 Alpha  occ. eigenvalues --  -10.19401 -10.19126 -10.18052 -10.17896 -10.17526
 Alpha  occ. eigenvalues --   -7.96399  -5.92834  -5.92452  -5.92073  -1.05553
 Alpha  occ. eigenvalues --   -0.94980  -0.85626  -0.79464  -0.78385  -0.75648
 Alpha  occ. eigenvalues --   -0.72583  -0.72106  -0.68620  -0.65426  -0.60111
 Alpha  occ. eigenvalues --   -0.58346  -0.57800  -0.52494  -0.51700  -0.48979
 Alpha  occ. eigenvalues --   -0.48707  -0.46713  -0.44247  -0.42756  -0.42470
 Alpha  occ. eigenvalues --   -0.41050  -0.40918  -0.39605  -0.39537  -0.39405
 Alpha  occ. eigenvalues --   -0.39175  -0.37993  -0.37483  -0.36667  -0.35504
 Alpha  occ. eigenvalues --   -0.34920  -0.33980  -0.32994  -0.28619  -0.27175
 Alpha  occ. eigenvalues --   -0.25452  -0.23919  -0.21925  -0.17982
 Alpha virt. eigenvalues --   -0.01140   0.00579   0.02130   0.02875   0.06348
 Alpha virt. eigenvalues --    0.06892   0.10191   0.10531   0.12033   0.12980
 Alpha virt. eigenvalues --    0.13608   0.13832   0.14370   0.14576   0.16842
 Alpha virt. eigenvalues --    0.17481   0.17782   0.18020   0.18529   0.20388
 Alpha virt. eigenvalues --    0.21457   0.24545   0.24878   0.25842   0.26041
 Alpha virt. eigenvalues --    0.27089   0.28406   0.32119   0.33107   0.35411
 Alpha virt. eigenvalues --    0.36556   0.37027   0.37999   0.38738   0.40540
 Alpha virt. eigenvalues --    0.42711   0.46505   0.49832   0.51151   0.51950
 Alpha virt. eigenvalues --    0.52340   0.52752   0.53536   0.54043   0.55225
 Alpha virt. eigenvalues --    0.55836   0.56633   0.58708   0.58905   0.59327
 Alpha virt. eigenvalues --    0.59721   0.61049   0.63417   0.63874   0.64814
 Alpha virt. eigenvalues --    0.66193   0.67930   0.68337   0.70114   0.72939
 Alpha virt. eigenvalues --    0.73620   0.74517   0.75548   0.76084   0.77121
 Alpha virt. eigenvalues --    0.77556   0.77894   0.78649   0.80483   0.80720
 Alpha virt. eigenvalues --    0.81630   0.82943   0.83076   0.84892   0.85056
 Alpha virt. eigenvalues --    0.86182   0.86280   0.87484   0.88252   0.88978
 Alpha virt. eigenvalues --    0.89805   0.90030   0.91515   0.92189   0.93718
 Alpha virt. eigenvalues --    0.93967   0.94897   0.96775   0.99190   0.99711
 Alpha virt. eigenvalues --    1.00795   1.01382   1.03917   1.04653   1.05822
 Alpha virt. eigenvalues --    1.08350   1.10505   1.11361   1.15992   1.17967
 Alpha virt. eigenvalues --    1.20576   1.22885   1.25875   1.27387   1.28326
 Alpha virt. eigenvalues --    1.30427   1.31048   1.32660   1.33131   1.34347
 Alpha virt. eigenvalues --    1.35336   1.38526   1.39804   1.41117   1.42127
 Alpha virt. eigenvalues --    1.44457   1.54226   1.56777   1.57909   1.58993
 Alpha virt. eigenvalues --    1.64416   1.65853   1.66992   1.68904   1.71688
 Alpha virt. eigenvalues --    1.72885   1.73810   1.75430   1.76584   1.77197
 Alpha virt. eigenvalues --    1.79183   1.81632   1.84017   1.85856   1.87038
 Alpha virt. eigenvalues --    1.87896   1.88839   1.91332   1.92005   1.93329
 Alpha virt. eigenvalues --    1.95566   1.95940   1.97953   2.00755   2.02166
 Alpha virt. eigenvalues --    2.03304   2.04965   2.05033   2.07069   2.08798
 Alpha virt. eigenvalues --    2.09723   2.11002   2.11995   2.12487   2.12943
 Alpha virt. eigenvalues --    2.14036   2.15397   2.15860   2.19355   2.19541
 Alpha virt. eigenvalues --    2.21471   2.23748   2.26258   2.27276   2.29647
 Alpha virt. eigenvalues --    2.31631   2.32278   2.33985   2.35139   2.35975
 Alpha virt. eigenvalues --    2.37707   2.39014   2.41673   2.43130   2.43328
 Alpha virt. eigenvalues --    2.45748   2.46340   2.49052   2.50770   2.51975
 Alpha virt. eigenvalues --    2.52589   2.54279   2.54860   2.56388   2.58255
 Alpha virt. eigenvalues --    2.59250   2.61162   2.65910   2.67603   2.69222
 Alpha virt. eigenvalues --    2.70477   2.70599   2.72018   2.73021   2.75457
 Alpha virt. eigenvalues --    2.77910   2.79865   2.82989   2.84242   2.85299
 Alpha virt. eigenvalues --    2.86102   2.88008   2.89363   2.90927   2.94792
 Alpha virt. eigenvalues --    3.00589   3.08467   3.11097   3.12579   3.18487
 Alpha virt. eigenvalues --    3.18727   3.20223   3.24720   3.25888   3.31563
 Alpha virt. eigenvalues --    3.34418   3.41580   3.41975   3.45858   3.46027
 Alpha virt. eigenvalues --    3.47199   3.49616   3.52432   3.60497   3.71633
 Alpha virt. eigenvalues --    3.94414   4.00827   4.07977   4.14155   4.15638
 Alpha virt. eigenvalues --    4.25620   4.32445   4.36169   4.42055   4.48135
 Alpha virt. eigenvalues --    4.49873   4.50753   4.58794   4.61704   4.86258
  Beta  occ. eigenvalues --  -88.90194 -19.17567 -14.32394 -10.24320 -10.22773
  Beta  occ. eigenvalues --  -10.21317 -10.21051 -10.20477 -10.19562 -10.19392
  Beta  occ. eigenvalues --  -10.19262 -10.19088 -10.17889 -10.17797 -10.17544
  Beta  occ. eigenvalues --   -7.96320  -5.92697  -5.92333  -5.92036  -1.05629
  Beta  occ. eigenvalues --   -0.94527  -0.85321  -0.79176  -0.78039  -0.75346
  Beta  occ. eigenvalues --   -0.72424  -0.71499  -0.68597  -0.65291  -0.59958
  Beta  occ. eigenvalues --   -0.58075  -0.57376  -0.51712  -0.51288  -0.48823
  Beta  occ. eigenvalues --   -0.48212  -0.46518  -0.43921  -0.42575  -0.42282
  Beta  occ. eigenvalues --   -0.40994  -0.40428  -0.39574  -0.39415  -0.39308
  Beta  occ. eigenvalues --   -0.38898  -0.37993  -0.37419  -0.36588  -0.35306
  Beta  occ. eigenvalues --   -0.33890  -0.33481  -0.32897  -0.27262  -0.27121
  Beta  occ. eigenvalues --   -0.24143  -0.23018  -0.21106
  Beta virt. eigenvalues --   -0.08764  -0.00255   0.01612   0.02808   0.03325
  Beta virt. eigenvalues --    0.06538   0.07340   0.10216   0.10818   0.12567
  Beta virt. eigenvalues --    0.13096   0.13730   0.14149   0.14492   0.14664
  Beta virt. eigenvalues --    0.16897   0.17506   0.17887   0.18172   0.18771
  Beta virt. eigenvalues --    0.20425   0.21536   0.24757   0.25207   0.26076
  Beta virt. eigenvalues --    0.26276   0.27250   0.28941   0.32329   0.33210
  Beta virt. eigenvalues --    0.35484   0.36614   0.37263   0.38599   0.38990
  Beta virt. eigenvalues --    0.40904   0.42982   0.46804   0.49952   0.51556
  Beta virt. eigenvalues --    0.52354   0.52624   0.53082   0.54166   0.54329
  Beta virt. eigenvalues --    0.55322   0.55984   0.56943   0.58932   0.59355
  Beta virt. eigenvalues --    0.59629   0.60059   0.61124   0.63533   0.64247
  Beta virt. eigenvalues --    0.65579   0.66587   0.68093   0.68740   0.70383
  Beta virt. eigenvalues --    0.73090   0.73938   0.74856   0.75994   0.76272
  Beta virt. eigenvalues --    0.77248   0.77731   0.78026   0.79025   0.80681
  Beta virt. eigenvalues --    0.81158   0.81797   0.83148   0.83426   0.84995
  Beta virt. eigenvalues --    0.85223   0.86291   0.86432   0.87566   0.88314
  Beta virt. eigenvalues --    0.89169   0.89847   0.90398   0.91638   0.92269
  Beta virt. eigenvalues --    0.93867   0.94348   0.95204   0.97264   0.99252
  Beta virt. eigenvalues --    0.99822   1.01213   1.01576   1.04123   1.04728
  Beta virt. eigenvalues --    1.06096   1.08457   1.10860   1.11460   1.16306
  Beta virt. eigenvalues --    1.18099   1.20870   1.23110   1.26144   1.27620
  Beta virt. eigenvalues --    1.28660   1.30652   1.31247   1.33088   1.33358
  Beta virt. eigenvalues --    1.34642   1.35498   1.38804   1.40111   1.41256
  Beta virt. eigenvalues --    1.42658   1.45263   1.54713   1.57138   1.58615
  Beta virt. eigenvalues --    1.59100   1.64636   1.66112   1.67528   1.69256
  Beta virt. eigenvalues --    1.71992   1.73324   1.74097   1.75654   1.76730
  Beta virt. eigenvalues --    1.77427   1.79248   1.81819   1.84374   1.86188
  Beta virt. eigenvalues --    1.87733   1.88269   1.89294   1.91841   1.92447
  Beta virt. eigenvalues --    1.93823   1.95758   1.96297   1.98612   2.00881
  Beta virt. eigenvalues --    2.02304   2.03409   2.05008   2.05152   2.07171
  Beta virt. eigenvalues --    2.08867   2.09832   2.11256   2.12100   2.12564
  Beta virt. eigenvalues --    2.13068   2.14108   2.15542   2.15954   2.19553
  Beta virt. eigenvalues --    2.19592   2.22983   2.24463   2.26617   2.28616
  Beta virt. eigenvalues --    2.29871   2.31925   2.32940   2.34148   2.35382
  Beta virt. eigenvalues --    2.36766   2.37844   2.39031   2.41851   2.43210
  Beta virt. eigenvalues --    2.43680   2.46196   2.46608   2.49299   2.51120
  Beta virt. eigenvalues --    2.52375   2.52933   2.54728   2.55161   2.56554
  Beta virt. eigenvalues --    2.58519   2.59498   2.61306   2.66063   2.67789
  Beta virt. eigenvalues --    2.69406   2.70616   2.70726   2.72128   2.73170
  Beta virt. eigenvalues --    2.75602   2.78003   2.80004   2.83306   2.84674
  Beta virt. eigenvalues --    2.85330   2.86388   2.88122   2.89483   2.91585
  Beta virt. eigenvalues --    2.94868   3.00778   3.08562   3.11428   3.12651
  Beta virt. eigenvalues --    3.18547   3.18789   3.20381   3.24780   3.25981
  Beta virt. eigenvalues --    3.31673   3.34508   3.41670   3.42023   3.45892
  Beta virt. eigenvalues --    3.46046   3.47212   3.49635   3.52450   3.60649
  Beta virt. eigenvalues --    3.71765   3.94774   4.01135   4.08280   4.14964
  Beta virt. eigenvalues --    4.15732   4.26082   4.32951   4.37206   4.42244
  Beta virt. eigenvalues --    4.48165   4.49880   4.50860   4.58746   4.61818
  Beta virt. eigenvalues --    4.86459
          Condensed to atoms (all electrons):
               1          2          3          4          5          6
     1  C    5.011236   0.466908   0.046566   0.026470   0.000897  -0.000007
     2  C    0.466908   4.999335  -0.018481   0.428247  -0.000060   0.000001
     3  C    0.046566  -0.018481   5.411116  -0.006106  -0.090013   0.007965
     4  C    0.026470   0.428247  -0.006106   4.770180  -0.000065   0.000003
     5  C    0.000897  -0.000060  -0.090013  -0.000065   4.750671   0.382174
     6  H   -0.000007   0.000001   0.007965   0.000003   0.382174   0.601923
     7  C    0.000125   0.000037  -0.050858   0.000007   0.567844  -0.057402
     8  H   -0.000001   0.000000   0.003481  -0.000000  -0.018945  -0.001019
     9  S   -0.009053  -0.001134   0.224440  -0.000078  -0.105460   0.005218
    10  N   -0.012558  -0.001686   0.512193   0.000743   0.415219  -0.043808
    11  O    0.003824  -0.083659  -0.000021   0.285738   0.000000  -0.000000
    12  H    0.000232  -0.021306  -0.000007  -0.027429  -0.000000   0.000000
    13  C   -0.059995   0.331094   0.001043  -0.051377   0.000009  -0.000000
    14  H   -0.002525  -0.024865  -0.000427   0.003206  -0.000001  -0.000000
    15  H   -0.001452  -0.033899   0.000934  -0.003317   0.000003  -0.000000
    16  H    0.002581  -0.031986   0.000097  -0.003617  -0.000001  -0.000000
    17  C   -0.009920  -0.041741  -0.004478   0.009532  -0.000051   0.000005
    18  C   -0.054925  -0.055203   0.001530   0.444996   0.000065  -0.000002
    19  C    0.427865  -0.024708  -0.017344  -0.072930  -0.000032   0.000003
    20  H   -0.042667   0.003931   0.000933   0.000895   0.000005  -0.000000
    21  C   -0.000399   0.009649   0.000006  -0.057943   0.000001  -0.000000
    22  H   -0.000024   0.000398  -0.000000  -0.008308  -0.000000  -0.000000
    23  H   -0.000012  -0.000091  -0.000001   0.001621  -0.000000   0.000000
    24  H    0.000074  -0.000301   0.000000   0.000643   0.000000  -0.000000
    25  C    0.008331  -0.000202  -0.000013   0.009072  -0.000002   0.000000
    26  H   -0.000157   0.000003  -0.000002  -0.000079  -0.000000   0.000000
    27  H   -0.000318   0.000068   0.000008  -0.000288   0.000001  -0.000001
    28  H    0.000157   0.000001  -0.000002  -0.000142   0.000000  -0.000000
    29  H    0.368801  -0.040606  -0.016625   0.004365  -0.000046   0.000000
               7          8          9         10         11         12
     1  C    0.000125  -0.000001  -0.009053  -0.012558   0.003824   0.000232
     2  C    0.000037   0.000000  -0.001134  -0.001686  -0.083659  -0.021306
     3  C   -0.050858   0.003481   0.224440   0.512193  -0.000021  -0.000007
     4  C    0.000007  -0.000000  -0.000078   0.000743   0.285738  -0.027429
     5  C    0.567844  -0.018945  -0.105460   0.415219   0.000000  -0.000000
     6  H   -0.057402  -0.001019   0.005218  -0.043808  -0.000000   0.000000
     7  C    5.234426   0.356611   0.317419  -0.060937   0.000000  -0.000000
     8  H    0.356611   0.560492  -0.032673   0.004294   0.000000   0.000000
     9  S    0.317419  -0.032673  15.486838  -0.088117  -0.000003  -0.000006
    10  N   -0.060937   0.004294  -0.088117   6.653099  -0.000007   0.000000
    11  O    0.000000   0.000000  -0.000003  -0.000007   8.129316   0.298272
    12  H   -0.000000   0.000000  -0.000006   0.000000   0.298272   0.403949
    13  C   -0.000044   0.000000   0.000224  -0.000125  -0.009204   0.014273
    14  H    0.000005   0.000000   0.000850   0.000009   0.000363  -0.000364
    15  H   -0.000082  -0.000001   0.002126   0.000095   0.000299   0.002963
    16  H   -0.000001   0.000000   0.000140  -0.000001   0.002342   0.002293
    17  C   -0.000000   0.000000   0.000065   0.002126   0.003057  -0.000032
    18  C   -0.000004  -0.000000  -0.000018   0.000857  -0.061122   0.007165
    19  C    0.000021   0.000000   0.001402  -0.000744   0.000093  -0.000054
    20  H   -0.000000  -0.000000  -0.000032   0.000007   0.000002  -0.000000
    21  C   -0.000000  -0.000000  -0.000000  -0.000033  -0.011089   0.000043
    22  H    0.000000   0.000000  -0.000000  -0.000000   0.010914  -0.000307
    23  H    0.000000   0.000000   0.000000   0.000004   0.000318  -0.000003
    24  H   -0.000000  -0.000000  -0.000000   0.000000   0.000471  -0.000010
    25  C   -0.000000   0.000000   0.000001  -0.000163  -0.000046   0.000004
    26  H    0.000000   0.000000   0.000000   0.000002   0.000000   0.000000
    27  H    0.000000  -0.000000   0.000000   0.000106  -0.000000  -0.000000
    28  H   -0.000000   0.000000   0.000000  -0.000000   0.000000  -0.000000
    29  H    0.000003   0.000000   0.001232   0.000803  -0.000054  -0.000014
              13         14         15         16         17         18
     1  C   -0.059995  -0.002525  -0.001452   0.002581  -0.009920  -0.054925
     2  C    0.331094  -0.024865  -0.033899  -0.031986  -0.041741  -0.055203
     3  C    0.001043  -0.000427   0.000934   0.000097  -0.004478   0.001530
     4  C   -0.051377   0.003206  -0.003317  -0.003617   0.009532   0.444996
     5  C    0.000009  -0.000001   0.000003  -0.000001  -0.000051   0.000065
     6  H   -0.000000  -0.000000  -0.000000  -0.000000   0.000005  -0.000002
     7  C   -0.000044   0.000005  -0.000082  -0.000001  -0.000000  -0.000004
     8  H    0.000000   0.000000  -0.000001   0.000000   0.000000  -0.000000
     9  S    0.000224   0.000850   0.002126   0.000140   0.000065  -0.000018
    10  N   -0.000125   0.000009   0.000095  -0.000001   0.002126   0.000857
    11  O   -0.009204   0.000363   0.000299   0.002342   0.003057  -0.061122
    12  H    0.014273  -0.000364   0.002963   0.002293  -0.000032   0.007165
    13  C    5.077927   0.373735   0.372882   0.363704   0.000390   0.007693
    14  H    0.373735   0.572445  -0.027594  -0.024314   0.000009  -0.000165
    15  H    0.372882  -0.027594   0.593895  -0.040793   0.000001  -0.000100
    16  H    0.363704  -0.024314  -0.040793   0.613724   0.000048  -0.000178
    17  C    0.000390   0.000009   0.000001   0.000048   4.711899   0.518032
    18  C    0.007693  -0.000165  -0.000100  -0.000178   0.518032   4.912221
    19  C    0.006680   0.000133  -0.000068  -0.000227   0.531409  -0.004672
    20  H   -0.000181  -0.000010   0.000003   0.000002  -0.033462   0.004918
    21  C   -0.000183   0.000002   0.000003  -0.000001  -0.074884   0.349220
    22  H   -0.000004  -0.000000   0.000000  -0.000000   0.004022  -0.024163
    23  H    0.000002  -0.000000  -0.000000   0.000000  -0.006893  -0.027378
    24  H    0.000002  -0.000000   0.000000  -0.000000  -0.003955  -0.025638
    25  C    0.000002  -0.000000  -0.000000   0.000000   0.366639  -0.068435
    26  H   -0.000000  -0.000000   0.000000  -0.000000  -0.025399  -0.006957
    27  H    0.000000   0.000000  -0.000000   0.000000  -0.024903  -0.004339
    28  H   -0.000000  -0.000000   0.000000  -0.000000  -0.026983   0.004264
    29  H   -0.009875   0.005534   0.000050   0.000142   0.003774   0.000824
              19         20         21         22         23         24
     1  C    0.427865  -0.042667  -0.000399  -0.000024  -0.000012   0.000074
     2  C   -0.024708   0.003931   0.009649   0.000398  -0.000091  -0.000301
     3  C   -0.017344   0.000933   0.000006  -0.000000  -0.000001   0.000000
     4  C   -0.072930   0.000895  -0.057943  -0.008308   0.001621   0.000643
     5  C   -0.000032   0.000005   0.000001  -0.000000  -0.000000   0.000000
     6  H    0.000003  -0.000000  -0.000000  -0.000000   0.000000  -0.000000
     7  C    0.000021  -0.000000  -0.000000   0.000000   0.000000  -0.000000
     8  H    0.000000  -0.000000  -0.000000   0.000000   0.000000  -0.000000
     9  S    0.001402  -0.000032  -0.000000  -0.000000   0.000000  -0.000000
    10  N   -0.000744   0.000007  -0.000033  -0.000000   0.000004   0.000000
    11  O    0.000093   0.000002  -0.011089   0.010914   0.000318   0.000471
    12  H   -0.000054  -0.000000   0.000043  -0.000307  -0.000003  -0.000010
    13  C    0.006680  -0.000181  -0.000183  -0.000004   0.000002   0.000002
    14  H    0.000133  -0.000010   0.000002  -0.000000  -0.000000  -0.000000
    15  H   -0.000068   0.000003   0.000003   0.000000  -0.000000   0.000000
    16  H   -0.000227   0.000002  -0.000001  -0.000000   0.000000  -0.000000
    17  C    0.531409  -0.033462  -0.074884   0.004022  -0.006893  -0.003955
    18  C   -0.004672   0.004918   0.349220  -0.024163  -0.027378  -0.025638
    19  C    4.971212   0.361382   0.009080  -0.000150  -0.000003  -0.000286
    20  H    0.361382   0.630622  -0.000169   0.000002  -0.000002  -0.000003
    21  C    0.009080  -0.000169   5.053761   0.378057   0.372803   0.367854
    22  H   -0.000150   0.000002   0.378057   0.556614  -0.026360  -0.027446
    23  H   -0.000003  -0.000002   0.372803  -0.026360   0.596106  -0.035089
    24  H   -0.000286  -0.000003   0.367854  -0.027446  -0.035089   0.601378
    25  C   -0.066833  -0.010993  -0.018821   0.000190   0.002428   0.001802
    26  H    0.001282   0.000160   0.002608   0.000006  -0.001298   0.003413
    27  H    0.000449   0.000224   0.001540   0.000012   0.003790  -0.000856
    28  H   -0.005383   0.006612   0.000239  -0.000007  -0.000001   0.000012
    29  H   -0.035548  -0.005213   0.000011   0.000000  -0.000000   0.000000
              25         26         27         28         29
     1  C    0.008331  -0.000157  -0.000318   0.000157   0.368801
     2  C   -0.000202   0.000003   0.000068   0.000001  -0.040606
     3  C   -0.000013  -0.000002   0.000008  -0.000002  -0.016625
     4  C    0.009072  -0.000079  -0.000288  -0.000142   0.004365
     5  C   -0.000002  -0.000000   0.000001   0.000000  -0.000046
     6  H    0.000000   0.000000  -0.000001  -0.000000   0.000000
     7  C   -0.000000   0.000000   0.000000  -0.000000   0.000003
     8  H    0.000000   0.000000  -0.000000   0.000000   0.000000
     9  S    0.000001   0.000000   0.000000   0.000000   0.001232
    10  N   -0.000163   0.000002   0.000106  -0.000000   0.000803
    11  O   -0.000046   0.000000  -0.000000   0.000000  -0.000054
    12  H    0.000004   0.000000  -0.000000  -0.000000  -0.000014
    13  C    0.000002  -0.000000   0.000000  -0.000000  -0.009875
    14  H   -0.000000  -0.000000   0.000000  -0.000000   0.005534
    15  H   -0.000000   0.000000  -0.000000   0.000000   0.000050
    16  H    0.000000  -0.000000   0.000000  -0.000000   0.000142
    17  C    0.366639  -0.025399  -0.024903  -0.026983   0.003774
    18  C   -0.068435  -0.006957  -0.004339   0.004264   0.000824
    19  C   -0.066833   0.001282   0.000449  -0.005383  -0.035548
    20  H   -0.010993   0.000160   0.000224   0.006612  -0.005213
    21  C   -0.018821   0.002608   0.001540   0.000239   0.000011
    22  H    0.000190   0.000006   0.000012  -0.000007   0.000000
    23  H    0.002428  -0.001298   0.003790  -0.000001  -0.000000
    24  H    0.001802   0.003413  -0.000856   0.000012   0.000000
    25  C    5.045085   0.369838   0.370149   0.373912  -0.000195
    26  H    0.369838   0.606331  -0.035609  -0.029426   0.000004
    27  H    0.370149  -0.035609   0.589469  -0.027718   0.000001
    28  H    0.373912  -0.029426  -0.027718   0.595709  -0.000006
    29  H   -0.000195   0.000004   0.000001  -0.000006   0.625281
          Atomic-Atomic Spin Densities.
               1          2          3          4          5          6
     1  C   -0.082195   0.022213  -0.069597  -0.000160  -0.000615   0.000008
     2  C    0.022213   0.217966  -0.026701  -0.009754  -0.000359   0.000006
     3  C   -0.069597  -0.026701   0.867186  -0.000757  -0.013623   0.000833
     4  C   -0.000160  -0.009754  -0.000757  -0.101439   0.000016  -0.000001
     5  C   -0.000615  -0.000359  -0.013623   0.000016   0.114552  -0.007057
     6  H    0.000008   0.000006   0.000833  -0.000001  -0.007057   0.002031
     7  C    0.000014   0.000037   0.001754  -0.000000  -0.013465   0.003084
     8  H    0.000003   0.000002   0.000521  -0.000000  -0.003389   0.000388
     9  S    0.006382   0.003378  -0.082948   0.000059  -0.019861   0.000612
    10  N    0.002781   0.000700  -0.041460   0.000040  -0.008573   0.001349
    11  O   -0.000072   0.000356  -0.000007   0.011855  -0.000000   0.000000
    12  H    0.000001  -0.000146  -0.000011   0.000351  -0.000000   0.000000
    13  C    0.000105  -0.001949   0.000718   0.000598   0.000004  -0.000000
    14  H    0.000294  -0.000523  -0.000249   0.000026  -0.000001   0.000000
    15  H   -0.000515  -0.004488   0.001673  -0.000158   0.000049  -0.000001
    16  H    0.000070  -0.003298  -0.000108   0.000536  -0.000000   0.000000
    17  C   -0.000250   0.000338   0.000292  -0.001186   0.000017  -0.000001
    18  C   -0.000545  -0.009786   0.002418   0.003198   0.000111  -0.000006
    19  C    0.019178   0.004395  -0.032311   0.000532  -0.000381   0.000009
    20  H    0.000241   0.000048   0.000521  -0.000040   0.000003  -0.000000
    21  C   -0.000001  -0.000082   0.000000   0.000234  -0.000000   0.000000
    22  H    0.000000   0.000002  -0.000000   0.000212  -0.000000   0.000000
    23  H    0.000003   0.000000  -0.000009  -0.000119  -0.000002   0.000000
    24  H    0.000004   0.000052   0.000002   0.000121   0.000000  -0.000000
    25  C   -0.000038   0.000013  -0.000020  -0.000020  -0.000000   0.000000
    26  H   -0.000010   0.000003  -0.000000  -0.000016  -0.000000  -0.000000
    27  H    0.000002  -0.000004  -0.000004   0.000005  -0.000001   0.000000
    28  H    0.000003   0.000001   0.000002  -0.000002   0.000000  -0.000000
    29  H    0.006294  -0.000753  -0.011256   0.000127  -0.000028   0.000000
               7          8          9         10         11         12
     1  C    0.000014   0.000003   0.006382   0.002781  -0.000072   0.000001
     2  C    0.000037   0.000002   0.003378   0.000700   0.000356  -0.000146
     3  C    0.001754   0.000521  -0.082948  -0.041460  -0.000007  -0.000011
     4  C   -0.000000  -0.000000   0.000059   0.000040   0.011855   0.000351
     5  C   -0.013465  -0.003389  -0.019861  -0.008573  -0.000000  -0.000000
     6  H    0.003084   0.000388   0.000612   0.001349   0.000000   0.000000
     7  C   -0.010246  -0.000117   0.007175   0.001559   0.000000   0.000000
     8  H   -0.000117   0.006978  -0.001293  -0.000284   0.000000   0.000000
     9  S    0.007175  -0.001293   0.143171   0.003787   0.000002   0.000003
    10  N    0.001559  -0.000284   0.003787   0.031600   0.000001   0.000000
    11  O    0.000000   0.000000   0.000002   0.000001  -0.019690  -0.000021
    12  H    0.000000   0.000000   0.000003   0.000000  -0.000021  -0.000124
    13  C    0.000001  -0.000000  -0.000130  -0.000004   0.000108   0.000025
    14  H   -0.000001   0.000000   0.000080  -0.000000  -0.000000   0.000005
    15  H    0.000009  -0.000003  -0.000751   0.000007  -0.000018  -0.000181
    16  H    0.000000   0.000000   0.000025  -0.000000  -0.000070   0.000128
    17  C   -0.000001  -0.000000  -0.000005  -0.000090  -0.000045   0.000000
    18  C   -0.000007  -0.000000  -0.000135  -0.001086  -0.001127   0.000094
    19  C    0.000019   0.000000   0.001381   0.004343   0.000010  -0.000000
    20  H   -0.000000  -0.000000  -0.000023  -0.000065  -0.000000  -0.000000
    21  C    0.000000   0.000000  -0.000000  -0.000001   0.000193  -0.000006
    22  H    0.000000   0.000000   0.000000   0.000000  -0.000025   0.000008
    23  H    0.000000   0.000000   0.000001   0.000018   0.000023   0.000002
    24  H   -0.000000  -0.000000  -0.000000  -0.000001  -0.000015  -0.000002
    25  C    0.000000   0.000000   0.000001   0.000022  -0.000000  -0.000000
    26  H    0.000000  -0.000000   0.000000   0.000000  -0.000000  -0.000000
    27  H    0.000000   0.000000   0.000000   0.000001   0.000000   0.000000
    28  H   -0.000000  -0.000000  -0.000000  -0.000001  -0.000000  -0.000000
    29  H   -0.000004   0.000000   0.001419   0.000132  -0.000000   0.000001
              13         14         15         16         17         18
     1  C    0.000105   0.000294  -0.000515   0.000070  -0.000250  -0.000545
     2  C   -0.001949  -0.000523  -0.004488  -0.003298   0.000338  -0.009786
     3  C    0.000718  -0.000249   0.001673  -0.000108   0.000292   0.002418
     4  C    0.000598   0.000026  -0.000158   0.000536  -0.001186   0.003198
     5  C    0.000004  -0.000001   0.000049  -0.000000   0.000017   0.000111
     6  H   -0.000000   0.000000  -0.000001   0.000000  -0.000001  -0.000006
     7  C    0.000001  -0.000001   0.000009   0.000000  -0.000001  -0.000007
     8  H   -0.000000   0.000000  -0.000003   0.000000  -0.000000  -0.000000
     9  S   -0.000130   0.000080  -0.000751   0.000025  -0.000005  -0.000135
    10  N   -0.000004  -0.000000   0.000007  -0.000000  -0.000090  -0.001086
    11  O    0.000108  -0.000000  -0.000018  -0.000070  -0.000045  -0.001127
    12  H    0.000025   0.000005  -0.000181   0.000128   0.000000   0.000094
    13  C   -0.017408   0.000626   0.000699   0.002381  -0.000011  -0.000038
    14  H    0.000626   0.000628  -0.000704   0.000260   0.000001  -0.000001
    15  H    0.000699  -0.000704   0.015987  -0.002674  -0.000005   0.000058
    16  H    0.002381   0.000260  -0.002674   0.007884   0.000004   0.000028
    17  C   -0.000011   0.000001  -0.000005   0.000004  -0.110371   0.004636
    18  C   -0.000038  -0.000001   0.000058   0.000028   0.004636   0.253146
    19  C   -0.000035   0.000000  -0.000020  -0.000010  -0.007705  -0.009241
    20  H    0.000002  -0.000000   0.000000  -0.000000   0.000046   0.000026
    21  C    0.000002  -0.000000   0.000000  -0.000000   0.000705  -0.003055
    22  H    0.000000   0.000000  -0.000000   0.000000  -0.000025  -0.000510
    23  H    0.000000   0.000000  -0.000000   0.000000   0.000205  -0.004492
    24  H   -0.000000  -0.000000   0.000000  -0.000000  -0.000180  -0.005741
    25  C   -0.000000   0.000000  -0.000000   0.000000   0.002251  -0.001001
    26  H    0.000000   0.000000  -0.000000   0.000000   0.001771   0.000009
    27  H   -0.000000   0.000000  -0.000000  -0.000000   0.001931  -0.000164
    28  H    0.000000  -0.000000   0.000000  -0.000000   0.000313   0.000061
    29  H   -0.000004   0.000115  -0.000131   0.000062   0.000023   0.000000
              19         20         21         22         23         24
     1  C    0.019178   0.000241  -0.000001   0.000000   0.000003   0.000004
     2  C    0.004395   0.000048  -0.000082   0.000002   0.000000   0.000052
     3  C   -0.032311   0.000521   0.000000  -0.000000  -0.000009   0.000002
     4  C    0.000532  -0.000040   0.000234   0.000212  -0.000119   0.000121
     5  C   -0.000381   0.000003  -0.000000  -0.000000  -0.000002   0.000000
     6  H    0.000009  -0.000000   0.000000   0.000000   0.000000  -0.000000
     7  C    0.000019  -0.000000   0.000000   0.000000   0.000000  -0.000000
     8  H    0.000000  -0.000000   0.000000   0.000000   0.000000  -0.000000
     9  S    0.001381  -0.000023  -0.000000   0.000000   0.000001  -0.000000
    10  N    0.004343  -0.000065  -0.000001   0.000000   0.000018  -0.000001
    11  O    0.000010  -0.000000   0.000193  -0.000025   0.000023  -0.000015
    12  H   -0.000000  -0.000000  -0.000006   0.000008   0.000002  -0.000002
    13  C   -0.000035   0.000002   0.000002   0.000000   0.000000  -0.000000
    14  H    0.000000  -0.000000  -0.000000   0.000000   0.000000  -0.000000
    15  H   -0.000020   0.000000   0.000000  -0.000000  -0.000000   0.000000
    16  H   -0.000010  -0.000000  -0.000000   0.000000   0.000000  -0.000000
    17  C   -0.007705   0.000046   0.000705  -0.000025   0.000205  -0.000180
    18  C   -0.009241   0.000026  -0.003055  -0.000510  -0.004492  -0.005741
    19  C    0.208477   0.001069  -0.000033  -0.000001   0.000054   0.000058
    20  H    0.001069  -0.010080   0.000002  -0.000000  -0.000001   0.000001
    21  C   -0.000033   0.000002  -0.020274   0.000776   0.001702   0.002409
    22  H   -0.000001  -0.000000   0.000776   0.000366   0.000266  -0.000603
    23  H    0.000054  -0.000001   0.001702   0.000266   0.015196  -0.004125
    24  H    0.000058   0.000001   0.002409  -0.000603  -0.004125   0.018840
    25  C   -0.000141   0.000102   0.000222   0.000001  -0.000067   0.000110
    26  H    0.000004   0.000001   0.000016   0.000001   0.000038  -0.000097
    27  H    0.000052  -0.000007  -0.000034   0.000001   0.000029  -0.000013
    28  H   -0.000125  -0.000054  -0.000004  -0.000000  -0.000001   0.000003
    29  H    0.000159  -0.000058   0.000000   0.000000   0.000000  -0.000000
              25         26         27         28         29
     1  C   -0.000038  -0.000010   0.000002   0.000003   0.006294
     2  C    0.000013   0.000003  -0.000004   0.000001  -0.000753
     3  C   -0.000020  -0.000000  -0.000004   0.000002  -0.011256
     4  C   -0.000020  -0.000016   0.000005  -0.000002   0.000127
     5  C   -0.000000  -0.000000  -0.000001   0.000000  -0.000028
     6  H    0.000000  -0.000000   0.000000  -0.000000   0.000000
     7  C    0.000000   0.000000   0.000000  -0.000000  -0.000004
     8  H    0.000000  -0.000000   0.000000  -0.000000   0.000000
     9  S    0.000001   0.000000   0.000000  -0.000000   0.001419
    10  N    0.000022   0.000000   0.000001  -0.000001   0.000132
    11  O   -0.000000  -0.000000   0.000000  -0.000000  -0.000000
    12  H   -0.000000  -0.000000   0.000000  -0.000000   0.000001
    13  C   -0.000000   0.000000  -0.000000   0.000000  -0.000004
    14  H    0.000000   0.000000   0.000000  -0.000000   0.000115
    15  H   -0.000000  -0.000000  -0.000000   0.000000  -0.000131
    16  H    0.000000   0.000000  -0.000000  -0.000000   0.000062
    17  C    0.002251   0.001771   0.001931   0.000313   0.000023
    18  C   -0.001001   0.000009  -0.000164   0.000061   0.000000
    19  C   -0.000141   0.000004   0.000052  -0.000125   0.000159
    20  H    0.000102   0.000001  -0.000007  -0.000054  -0.000058
    21  C    0.000222   0.000016  -0.000034  -0.000004   0.000000
    22  H    0.000001   0.000001   0.000001  -0.000000   0.000000
    23  H   -0.000067   0.000038   0.000029  -0.000001   0.000000
    24  H    0.000110  -0.000097  -0.000013   0.000003  -0.000000
    25  C    0.006972  -0.000801  -0.000571  -0.000314   0.000000
    26  H   -0.000801  -0.005272   0.001386   0.000012  -0.000000
    27  H   -0.000571   0.001386  -0.006387   0.000161   0.000000
    28  H   -0.000314   0.000012   0.000161  -0.000461  -0.000000
    29  H    0.000000  -0.000000   0.000000  -0.000000   0.013760
 Mulliken charges and spin densities:
               1          2
     1  C   -0.170056  -0.096402
     2  C    0.140256   0.191667
     3  C   -0.005934   0.596860
     4  C    0.245962  -0.095742
     5  C    0.097786   0.047395
     6  H    0.104946   0.001254
     7  C   -0.307169  -0.010188
     8  H    0.127760   0.002806
     9  S    0.196619   0.062329
    10  N   -0.381377  -0.005223
    11  O   -0.569805  -0.008543
    12  H    0.320340   0.000127
    13  C   -0.418673  -0.014311
    14  H    0.123974   0.000558
    15  H    0.134053   0.008831
    16  H    0.116045   0.005218
    17  C    0.101693  -0.107342
    18  C    0.081515   0.226848
    19  C   -0.082029   0.189736
    20  H    0.083035  -0.008266
    21  C   -0.381353  -0.017227
    22  H    0.136553   0.000468
    23  H    0.120060   0.008720
    24  H    0.117937   0.010823
    25  C   -0.381750   0.006721
    26  H    0.115279  -0.002955
    27  H    0.128215  -0.003615
    28  H    0.108763  -0.000407
    29  H    0.097354   0.009860
 Sum of Mulliken charges =  -0.00000   1.00000
 Mulliken charges and spin densities with hydrogens summed into heavy atoms:
               1          2
     1  C   -0.072702  -0.086543
     2  C    0.140256   0.191667
     3  C   -0.005934   0.596860
     4  C    0.245962  -0.095742
     5  C    0.202732   0.048650
     7  C   -0.179409  -0.007382
     9  S    0.196619   0.062329
    10  N   -0.381377  -0.005223
    11  O   -0.249465  -0.008416
    13  C   -0.044600   0.000296
    17  C    0.101693  -0.107342
    18  C    0.081515   0.226848
    19  C    0.001006   0.181471
    21  C   -0.006802   0.002784
    25  C   -0.029493  -0.000256
 APT charges:
               1
     1  C   -0.038787
     2  C   -0.062282
     3  C    0.596050
     4  C    0.342463
     5  C    0.131059
     6  H    0.031041
     7  C   -0.090702
     8  H    0.071914
     9  S   -0.206771
    10  N   -0.567249
    11  O   -0.640390
    12  H    0.274198
    13  C    0.071848
    14  H    0.010846
    15  H   -0.026293
    16  H   -0.024457
    17  C    0.082541
    18  C    0.062606
    19  C   -0.106916
    20  H    0.017052
    21  C    0.034335
    22  H    0.029166
    23  H   -0.020693
    24  H   -0.035514
    25  C    0.080711
    26  H   -0.030443
    27  H   -0.021763
    28  H   -0.008022
    29  H    0.044451
 Sum of APT charges =   0.00000
 APT charges with hydrogens summed into heavy atoms:
               1
     1  C    0.005664
     2  C   -0.062282
     3  C    0.596050
     4  C    0.342463
     5  C    0.162100
     7  C   -0.018788
     9  S   -0.206771
    10  N   -0.567249
    11  O   -0.366192
    13  C    0.031944
    17  C    0.082541
    18  C    0.062606
    19  C   -0.089864
    21  C    0.007295
    25  C    0.020483
 Electronic spatial extent (au):  <R**2>=          10357.4286
 Charge=              0.0000 electrons
 Dipole moment (field-independent basis, Debye):
    X=              0.0537    Y=              0.6416    Z=              1.1817  Tot=              1.3457
 Quadrupole moment (field-independent basis, Debye-Ang):
   XX=            -93.2796   YY=            -90.0102   ZZ=            -88.6703
   XY=             -0.0567   XZ=              6.8097   YZ=              2.4601
 Traceless Quadrupole moment (field-independent basis, Debye-Ang):
   XX=             -2.6262   YY=              0.6432   ZZ=              1.9831
   XY=             -0.0567   XZ=              6.8097   YZ=              2.4601
 Octapole moment (field-independent basis, Debye-Ang**2):
  XXX=           -935.1920  YYY=            461.6326  ZZZ=           -373.3705  XYY=           -309.9833
  XXY=            151.0168  XXZ=           -107.8254  XZZ=           -295.1261  YZZ=            178.8064
  YYZ=           -155.3945  XYZ=              6.7491
 Hexadecapole moment (field-independent basis, Debye-Ang**3):
 XXXX=          -7034.7658 YYYY=          -4145.7414 ZZZZ=          -2382.3167 XXXY=           1290.5686
 XXXZ=          -1196.4468 YYYX=           1351.7427 YYYZ=            988.7419 ZZZX=          -1195.3534
 ZZZY=           1033.1242 XXYY=          -1925.3999 XXZZ=          -1551.0161 YYZZ=          -1247.8376
 XXYZ=            357.5688 YYXZ=           -514.3008 ZZXY=            492.3123
 N-N= 1.077767959072D+03 E-N=-4.484908773561D+03  KE= 9.868768721903D+02
  Exact polarizability:     135.004      25.021     204.372       0.958      -8.080     144.621
 Approx polarizability:     242.552      46.811     302.994       2.391       9.169     225.622
                          Isotropic Fermi Contact Couplings
        Atom                 a.u.       MegaHertz       Gauss      10(-4) cm-1
     1  C(13)              0.01313      14.76261       5.26767       4.92428
     2  C(13)              0.02157      24.24832       8.65240       8.08837
     3  C(13)              0.60776     683.24385     243.79840     227.90562
     4  C(13)             -0.01585     -17.81653      -6.35738      -5.94296
     5  C(13)              0.05883      66.13486      23.59856      22.06022
     6  H(1)               0.00014       0.62992       0.22477       0.21012
     7  C(13)             -0.00196      -2.20217      -0.78579      -0.73457
     8  H(1)               0.00144       6.44151       2.29849       2.14866
     9  S(33)              0.15631      53.68783      19.15715      17.90833
    10  N(14)              0.12799      41.35526      14.75658      13.79463
    11  O(17)             -0.00329       1.99164       0.71066       0.66434
    12  H(1)               0.00002       0.10675       0.03809       0.03561
    13  C(13)             -0.00532      -5.98312      -2.13493      -1.99575
    14  H(1)               0.00022       0.97399       0.34754       0.32489
    15  H(1)               0.00392      17.50758       6.24714       5.83990
    16  H(1)               0.00297      13.28707       4.74116       4.43209
    17  C(13)             -0.01578     -17.73843      -6.32951      -5.91690
    18  C(13)              0.02562      28.80370      10.27788       9.60788
    19  C(13)              0.02114      23.76311       8.47927       7.92652
    20  H(1)              -0.00280     -12.51735      -4.46650      -4.17534
    21  C(13)             -0.00617      -6.93521      -2.47465      -2.31334
    22  H(1)               0.00019       0.86795       0.30971       0.28952
    23  H(1)               0.00449      20.05805       7.15721       6.69065
    24  H(1)               0.00557      24.88960       8.88123       8.30228
    25  C(13)              0.00218       2.45475       0.87592       0.81882
    26  H(1)              -0.00149      -6.66410      -2.37792      -2.22291
    27  H(1)              -0.00182      -8.15635      -2.91039      -2.72067
    28  H(1)              -0.00016      -0.71517      -0.25519      -0.23856
    29  H(1)               0.00714      31.92471      11.39153      10.64894
 --------------------------------------------------------
       Center         ----  Spin Dipole Couplings  ----
                      3XX-RR        3YY-RR        3ZZ-RR
 --------------------------------------------------------
     1   Atom       -0.001385      0.002353     -0.000968
     2   Atom       -0.044136      0.015659      0.028476
     3   Atom        0.002769      0.083488     -0.086257
     4   Atom        0.013235     -0.006614     -0.006621
     5   Atom        0.003512      0.003576     -0.007087
     6   Atom        0.003480     -0.002946     -0.000534
     7   Atom        0.019071      0.012632     -0.031703
     8   Atom        0.000164      0.002658     -0.002822
     9   Atom       -0.228279      0.464405     -0.236126
    10   Atom       -0.013815      0.092527     -0.078712
    11   Atom        0.007864     -0.001881     -0.005983
    12   Atom        0.001462     -0.003069      0.001606
    13   Atom       -0.004656     -0.000862      0.005519
    14   Atom       -0.002186     -0.000862      0.003048
    15   Atom       -0.003419      0.000123      0.003296
    16   Atom       -0.002867     -0.001409      0.004276
    17   Atom        0.016186     -0.004570     -0.011616
    18   Atom       -0.045160      0.025638      0.019522
    19   Atom       -0.042715      0.032436      0.010279
    20   Atom       -0.001287     -0.001213      0.002500
    21   Atom        0.001336      0.000406     -0.001741
    22   Atom        0.002500     -0.001631     -0.000868
    23   Atom        0.001930     -0.000526     -0.001404
    24   Atom       -0.000119      0.002523     -0.002404
    25   Atom       -0.001182      0.002018     -0.000836
    26   Atom       -0.000995      0.001702     -0.000707
    27   Atom       -0.001067      0.001008      0.000059
    28   Atom       -0.001471      0.002244     -0.000773
    29   Atom        0.006558     -0.006085     -0.000473
 --------------------------------------------------------
                        XY            XZ            YZ
 --------------------------------------------------------
     1   Atom        0.022978     -0.025924      0.023926
     2   Atom       -0.088006      0.088665     -0.123719
     3   Atom       -0.330313      0.143967     -0.232686
     4   Atom        0.040070     -0.035492      0.046379
     5   Atom       -0.030022      0.006611     -0.018400
     6   Atom       -0.001889      0.005788     -0.001229
     7   Atom       -0.006744      0.032892     -0.005726
     8   Atom       -0.000532      0.002692     -0.001408
     9   Atom        0.042010      0.036204      0.133735
    10   Atom       -0.046947      0.064537      0.011989
    11   Atom        0.023447     -0.031405      0.031575
    12   Atom       -0.000548     -0.003541     -0.001292
    13   Atom       -0.000330      0.001039      0.001369
    14   Atom        0.002055      0.003054      0.002027
    15   Atom       -0.001149     -0.001550      0.003402
    16   Atom       -0.000018      0.000003      0.001685
    17   Atom        0.038494     -0.040449      0.047181
    18   Atom       -0.095995      0.098128     -0.143269
    19   Atom       -0.088779      0.078028     -0.116090
    20   Atom       -0.011237     -0.009120      0.001309
    21   Atom        0.001527      0.000964     -0.003510
    22   Atom        0.001161     -0.002394     -0.001114
    23   Atom        0.003030      0.001444      0.000460
    24   Atom        0.002687     -0.000491     -0.001158
    25   Atom        0.001394     -0.000722      0.002190
    26   Atom        0.000212     -0.000268      0.001114
    27   Atom        0.001256      0.000113      0.001420
    28   Atom        0.000623      0.000291      0.001694
    29   Atom       -0.005487      0.008139     -0.001275
 --------------------------------------------------------


 ---------------------------------------------------------------------------------
              Anisotropic Spin Dipole Couplings in Principal Axis System
 ---------------------------------------------------------------------------------

       Atom             a.u.   MegaHertz   Gauss  10(-4) cm-1        Axes

              Baa    -0.0487    -6.530    -2.330    -2.178  0.5910 -0.5451  0.5947
     1 C(13)  Bbb     0.0235     3.159     1.127     1.054  0.6820  0.7313 -0.0074
              Bcc     0.0251     3.372     1.203     1.125 -0.4308  0.4100  0.8039
 
              Baa    -0.1072   -14.383    -5.132    -4.798  0.8140  0.5809 -0.0023
     2 C(13)  Bbb    -0.1007   -13.510    -4.821    -4.506 -0.3744  0.5277  0.7625
              Bcc     0.2079    27.893     9.953     9.304  0.4441 -0.6198  0.6470
 
              Baa    -0.3083   -41.367   -14.761   -13.799  0.5913  0.7174  0.3684
     3 C(13)  Bbb    -0.1921   -25.784    -9.200    -8.601 -0.5571  0.0330  0.8298
              Bcc     0.5004    67.151    23.961    22.399 -0.5832  0.6959 -0.4191
 
              Baa    -0.0828   -11.106    -3.963    -3.704 -0.4866  0.6267 -0.6086
     4 C(13)  Bbb     0.0381     5.117     1.826     1.707 -0.4349  0.4304  0.7910
              Bcc     0.0446     5.989     2.137     1.998  0.7577  0.6496  0.0631
 
              Baa    -0.0303    -4.062    -1.449    -1.355  0.5590  0.7197  0.4118
     5 C(13)  Bbb    -0.0100    -1.348    -0.481    -0.450 -0.5411 -0.0596  0.8388
              Bcc     0.0403     5.410     1.930     1.805 -0.6282  0.6917 -0.3561
 
              Baa    -0.0047    -2.486    -0.887    -0.829 -0.5891 -0.0722  0.8048
     6 H(1)   Bbb    -0.0034    -1.814    -0.647    -0.605  0.1204  0.9770  0.1758
              Bcc     0.0081     4.300     1.534     1.434  0.7991 -0.2005  0.5668
 
              Baa    -0.0479    -6.434    -2.296    -2.146 -0.4374  0.0362  0.8986
     7 C(13)  Bbb     0.0098     1.317     0.470     0.439  0.3025  0.9469  0.1091
              Bcc     0.0381     5.116     1.826     1.707  0.8469 -0.3195  0.4251
 
              Baa    -0.0045    -2.420    -0.863    -0.807 -0.4812  0.1339  0.8663
     8 H(1)   Bbb     0.0010     0.531     0.190     0.177  0.7695  0.5380  0.3442
              Bcc     0.0035     1.888     0.674     0.630 -0.4200  0.8322 -0.3619
 
              Baa    -0.2777   -11.384    -4.062    -3.797 -0.5162 -0.1235  0.8475
     9 S(33)  Bbb    -0.2146    -8.798    -3.139    -2.935  0.8539 -0.1509  0.4981
              Bcc     0.4923    20.182     7.201     6.732  0.0664  0.9808  0.1834
 
              Baa    -0.1243    -4.794    -1.711    -1.599 -0.5486 -0.1641  0.8198
    10 N(14)  Bbb     0.0132     0.508     0.181     0.169  0.7431  0.3538  0.5681
              Bcc     0.1111     4.286     1.529     1.430 -0.3833  0.9208 -0.0721
 
              Baa    -0.0585     4.233     1.511     1.412  0.5072 -0.5703  0.6461
    11 O(17)  Bbb     0.0252    -1.824    -0.651    -0.608  0.4739  0.8108  0.3437
              Bcc     0.0333    -2.410    -0.860    -0.804  0.7199 -0.1319 -0.6815
 
              Baa    -0.0040    -2.113    -0.754    -0.705  0.3595  0.8323  0.4218
    12 H(1)   Bbb    -0.0012    -0.615    -0.219    -0.205  0.6288 -0.5501  0.5495
              Bcc     0.0051     2.728     0.973     0.910 -0.6894 -0.0677  0.7212
 
              Baa    -0.0048    -0.647    -0.231    -0.216  0.9858  0.1220 -0.1153
    13 C(13)  Bbb    -0.0011    -0.143    -0.051    -0.048 -0.1416  0.9734 -0.1800
              Bcc     0.0059     0.790     0.282     0.263  0.0903  0.1938  0.9769
 
              Baa    -0.0040    -2.156    -0.769    -0.719  0.8780 -0.3993 -0.2641
    14 H(1)   Bbb    -0.0016    -0.833    -0.297    -0.278  0.2230  0.8293 -0.5124
              Bcc     0.0056     2.988     1.066     0.997  0.4236  0.3910  0.8171
 
              Baa    -0.0038    -2.042    -0.729    -0.681  0.9765  0.1714  0.1306
    15 H(1)   Bbb    -0.0020    -1.086    -0.387    -0.362 -0.0721  0.8311 -0.5515
              Bcc     0.0059     3.128     1.116     1.043 -0.2031  0.5291  0.8239
 
              Baa    -0.0029    -1.530    -0.546    -0.510  0.9998  0.0176 -0.0046
    16 H(1)   Bbb    -0.0019    -0.998    -0.356    -0.333 -0.0181  0.9643 -0.2643
              Bcc     0.0047     2.528     0.902     0.843 -0.0002  0.2643  0.9644
 
              Baa    -0.0859   -11.531    -4.115    -3.846  0.4797 -0.5988  0.6413
    17 C(13)  Bbb     0.0392     5.256     1.876     1.753 -0.0698  0.7025  0.7082
              Bcc     0.0468     6.275     2.239     2.093  0.8746  0.3845 -0.2952
 
              Baa    -0.1215   -16.309    -5.819    -5.440 -0.2623  0.5798  0.7714
    18 C(13)  Bbb    -0.1119   -15.022    -5.360    -5.011  0.8579  0.5062 -0.0887
              Bcc     0.2335    31.331    11.180    10.451 -0.4419  0.6385 -0.6302
 
              Baa    -0.1016   -13.637    -4.866    -4.549  0.8637  0.4964 -0.0872
    19 C(13)  Bbb    -0.0948   -12.717    -4.538    -4.242 -0.2402  0.5575  0.7946
              Bcc     0.1964    26.354     9.404     8.791 -0.4431  0.6654 -0.6008
 
              Baa    -0.0146    -7.764    -2.771    -2.590  0.7336  0.5839  0.3476
    20 H(1)   Bbb    -0.0003    -0.147    -0.052    -0.049  0.1414 -0.6315  0.7624
              Bcc     0.0148     7.911     2.823     2.639  0.6647 -0.5102 -0.5459
 
              Baa    -0.0048    -0.645    -0.230    -0.215 -0.2666  0.5910  0.7613
    21 C(13)  Bbb     0.0015     0.205     0.073     0.068  0.8841 -0.1646  0.4374
              Bcc     0.0033     0.440     0.157     0.147  0.3838  0.7897 -0.4787
 
              Baa    -0.0025    -1.343    -0.479    -0.448  0.1945  0.6586  0.7270
    22 H(1)   Bbb    -0.0016    -0.874    -0.312    -0.292 -0.4923  0.7065 -0.5084
              Bcc     0.0042     2.218     0.791     0.740  0.8484  0.2590 -0.4616
 
              Baa    -0.0027    -1.464    -0.522    -0.488 -0.5830  0.7171  0.3821
    23 H(1)   Bbb    -0.0016    -0.852    -0.304    -0.284  0.0254 -0.4539  0.8907
              Bcc     0.0043     2.317     0.827     0.773  0.8121  0.5289  0.2464
 
              Baa    -0.0027    -1.426    -0.509    -0.476 -0.0893  0.2604  0.9614
    24 H(1)   Bbb    -0.0017    -0.934    -0.333    -0.311  0.8524 -0.4793  0.2090
              Bcc     0.0044     2.360     0.842     0.787  0.5152  0.8381 -0.1792
 
              Baa    -0.0030    -0.404    -0.144    -0.135  0.6037 -0.4529  0.6561
    25 C(13)  Bbb    -0.0004    -0.050    -0.018    -0.017  0.7711  0.1227 -0.6248
              Bcc     0.0034     0.455     0.162     0.152  0.2025  0.8831  0.4233
 
              Baa    -0.0014    -0.750    -0.267    -0.250  0.6257 -0.3008  0.7198
    26 H(1)   Bbb    -0.0007    -0.393    -0.140    -0.131  0.7794  0.2031 -0.5927
              Bcc     0.0021     1.142     0.408     0.381  0.0321  0.9318  0.3615
 
              Baa    -0.0018    -0.983    -0.351    -0.328  0.7870 -0.5157  0.3386
    27 H(1)   Bbb    -0.0005    -0.290    -0.103    -0.097 -0.5337 -0.2939  0.7930
              Bcc     0.0024     1.273     0.454     0.424  0.3094  0.8048  0.5065
 
              Baa    -0.0016    -0.841    -0.300    -0.281  0.9636 -0.0400 -0.2642
    28 H(1)   Bbb    -0.0015    -0.816    -0.291    -0.272  0.2221 -0.4295  0.8753
              Bcc     0.0031     1.658     0.591     0.553  0.1485  0.9022  0.4050
 
              Baa    -0.0087    -4.663    -1.664    -1.555  0.4724  0.8133 -0.3397
    29 H(1)   Bbb    -0.0046    -2.465    -0.880    -0.822 -0.3224  0.5182  0.7921
              Bcc     0.0134     7.128     2.543     2.378  0.8203 -0.2647  0.5071
 

 ---------------------------------------------------------------------------------

 Calling FoFJK, ICntrl=    100127 FMM=F ISym2X=0 I1Cent= 0 IOpClX= 1 NMat=1 NMatS=1 NMatT=0.
 Full mass-weighted force constant matrix:
 Low frequencies --- -227.9991   -4.1003   -0.0016    0.0007    0.0027    1.6165
 Low frequencies ---    3.9563   19.0376   29.7354
 ******    1 imaginary frequencies (negative Signs) ****** 
 Diagonal vibrational polarizability:
       29.0368048      29.9144858      45.8763712
 Harmonic frequencies (cm**-1), IR intensities (KM/Mole), Raman scattering
 activities (A**4/AMU), depolarization ratios for plane and unpolarized
 incident light, reduced masses (AMU), force constants (mDyne/A),
 and normal coordinates:
                      1                      2                      3
                      A                      A                      A
 Frequencies --   -227.9991                19.0346                29.7349
 Red. masses --      9.1298                 7.7038                 4.9624
 Frc consts  --      0.2796                 0.0016                 0.0026
 IR Inten    --     11.0481                 0.0779                 0.2067
  Atom  AN      X      Y      Z        X      Y      Z        X      Y      Z
     1   6    -0.25   0.43  -0.40    -0.04   0.03   0.02     0.08  -0.02   0.02
     2   6    -0.08   0.11  -0.08    -0.07   0.01   0.00     0.05   0.03  -0.02
     3   6     0.01  -0.16   0.26    -0.06   0.01   0.01     0.07  -0.08   0.00
     4   6    -0.00   0.04  -0.02    -0.04  -0.03  -0.01     0.01   0.09  -0.07
     5   6     0.10  -0.13   0.04    -0.16   0.13   0.24    -0.12  -0.15   0.20
     6   1     0.14  -0.15  -0.01    -0.29   0.20   0.42    -0.19  -0.19   0.30
     7   6     0.11  -0.11  -0.01     0.08   0.08   0.02    -0.15  -0.12   0.16
     8   1     0.15  -0.13  -0.10     0.17   0.10  -0.01    -0.24  -0.13   0.21
     9  16     0.03  -0.08   0.07     0.22  -0.02  -0.21    -0.01  -0.06  -0.00
    10   7     0.02  -0.11   0.16    -0.23   0.09   0.24     0.01  -0.13   0.11
    11   8     0.04  -0.04   0.05    -0.08  -0.06  -0.04    -0.03   0.14  -0.12
    12   1    -0.06   0.03  -0.04    -0.12  -0.04  -0.04    -0.02   0.14  -0.13
    13   6    -0.02   0.04  -0.02    -0.14   0.04  -0.02     0.06   0.02  -0.01
    14   1     0.01  -0.02   0.03    -0.16   0.09  -0.01     0.09  -0.03   0.04
    15   1     0.05   0.11   0.02    -0.18   0.01  -0.05     0.11   0.06  -0.06
    16   1    -0.07  -0.02  -0.04    -0.15   0.07  -0.01    -0.02   0.03  -0.01
    17   6     0.00   0.04  -0.04     0.05  -0.03   0.01     0.04   0.03  -0.02
    18   6    -0.00   0.02  -0.01     0.02  -0.06  -0.01    -0.00   0.10  -0.08
    19   6    -0.10   0.13  -0.17     0.02   0.01   0.03     0.08  -0.03   0.03
    20   1    -0.12   0.16  -0.20     0.04   0.03   0.05     0.11  -0.07   0.07
    21   6     0.02  -0.00   0.01     0.04  -0.11  -0.02    -0.06   0.18  -0.15
    22   1     0.02  -0.00   0.01     0.02  -0.14  -0.02    -0.08   0.23  -0.21
    23   1     0.02  -0.03   0.01     0.05  -0.13  -0.02     0.01   0.19  -0.19
    24   1     0.04   0.00   0.03     0.08  -0.10  -0.02    -0.14   0.17  -0.12
    25   6     0.03  -0.03   0.02     0.11  -0.06   0.02     0.03   0.03  -0.02
    26   1     0.04  -0.00   0.06     0.15  -0.06   0.03    -0.07   0.05  -0.02
    27   1     0.04  -0.06   0.01     0.11  -0.11   0.01     0.09   0.08  -0.09
    28   1     0.04  -0.04   0.03     0.13  -0.02   0.03     0.07  -0.03   0.05
    29   1    -0.12   0.18  -0.18    -0.05   0.06   0.04     0.10  -0.05   0.05
                      4                      5                      6
                      A                      A                      A
 Frequencies --     51.3448                85.2652               101.3878
 Red. masses --      4.5082                 1.0561                 3.2232
 Frc consts  --      0.0070                 0.0045                 0.0195
 IR Inten    --      0.4057                 0.1995                 1.9181
  Atom  AN      X      Y      Z        X      Y      Z        X      Y      Z
     1   6    -0.02  -0.02  -0.10    -0.00   0.00  -0.00    -0.01   0.03   0.04
     2   6    -0.02   0.03  -0.12     0.00  -0.00   0.00    -0.04   0.06  -0.00
     3   6     0.03  -0.01  -0.10    -0.01   0.01   0.00     0.09  -0.07  -0.14
     4   6    -0.02   0.04  -0.08     0.00  -0.00  -0.00    -0.00  -0.01   0.04
     5   6    -0.00   0.12   0.05    -0.00   0.01  -0.01    -0.00  -0.02   0.04
     6   1    -0.01   0.19   0.06    -0.00   0.01  -0.01    -0.04   0.01   0.08
     7   6    -0.02   0.08   0.19     0.00   0.01  -0.01    -0.03  -0.03   0.12
     8   1    -0.04   0.11   0.32     0.01   0.01  -0.02    -0.08  -0.02   0.23
     9  16     0.00  -0.02   0.12    -0.00   0.01  -0.00     0.04  -0.08   0.00
    10   7     0.02   0.07  -0.11    -0.01   0.01  -0.00     0.06  -0.04  -0.10
    11   8    -0.03   0.10  -0.10     0.01  -0.02   0.02     0.02  -0.06   0.07
    12   1    -0.05   0.15  -0.18    -0.03   0.01  -0.02     0.07  -0.13   0.17
    13   6    -0.02   0.08  -0.17     0.01  -0.02   0.01    -0.13   0.13  -0.06
    14   1    -0.03   0.08  -0.19     0.02  -0.03   0.02    -0.25   0.35  -0.24
    15   1    -0.03   0.07  -0.21     0.02  -0.01   0.02    -0.34  -0.03   0.06
    16   1    -0.03   0.13  -0.16     0.00  -0.03   0.01     0.13   0.13  -0.04
    17   6     0.01  -0.09   0.03     0.00  -0.00  -0.00    -0.01   0.05  -0.01
    18   6     0.00  -0.04   0.01    -0.01   0.01  -0.01     0.01   0.00   0.02
    19   6    -0.01  -0.07  -0.04     0.00  -0.00  -0.00     0.00   0.04   0.03
    20   1    -0.01  -0.11  -0.02     0.01  -0.01   0.01     0.00   0.05   0.03
    21   6     0.03  -0.06   0.08    -0.01   0.02  -0.00     0.04  -0.05   0.06
    22   1     0.01  -0.01   0.04    -0.21   0.32  -0.35     0.00  -0.02   0.01
    23   1     0.03  -0.18   0.09     0.23  -0.44  -0.12     0.06  -0.15   0.05
    24   1     0.06  -0.03   0.19    -0.03   0.15   0.52     0.09  -0.01   0.15
    25   6     0.04  -0.19   0.14     0.01  -0.01   0.00    -0.06   0.15  -0.11
    26   1     0.11  -0.15   0.24    -0.21   0.04   0.01    -0.20   0.12  -0.21
    27   1     0.02  -0.30   0.15     0.15   0.08  -0.17     0.00   0.30  -0.16
    28   1     0.04  -0.21   0.14     0.11  -0.16   0.16    -0.04   0.12  -0.07
    29   1    -0.01  -0.03  -0.12    -0.00   0.00  -0.01    -0.02   0.05   0.05
                      7                      8                      9
                      A                      A                      A
 Frequencies --    113.6189               123.7145               139.1572
 Red. masses --      3.9006                 1.6522                 3.5710
 Frc consts  --      0.0297                 0.0149                 0.0407
 IR Inten    --      1.5806                 1.3634                 3.2434
  Atom  AN      X      Y      Z        X      Y      Z        X      Y      Z
     1   6    -0.00  -0.05  -0.00    -0.00  -0.03  -0.02    -0.07   0.08  -0.02
     2   6    -0.02  -0.02  -0.02    -0.01  -0.01  -0.03    -0.05   0.02   0.01
     3   6     0.16   0.08   0.06     0.05   0.05   0.05     0.13   0.01  -0.17
     4   6    -0.04  -0.00  -0.03     0.00  -0.02  -0.00    -0.05   0.02  -0.00
     5   6     0.03  -0.11   0.07     0.02  -0.03   0.02    -0.03  -0.01   0.03
     6   1     0.01  -0.22   0.11     0.02  -0.08   0.03    -0.07  -0.02   0.10
     7   6    -0.06  -0.04  -0.00    -0.02  -0.00  -0.02    -0.09   0.01   0.09
     8   1    -0.17  -0.07  -0.04    -0.05  -0.02  -0.05    -0.19   0.01   0.20
     9  16     0.02   0.14  -0.04    -0.00   0.07  -0.01     0.03   0.03  -0.07
    10   7     0.16  -0.03   0.11     0.05  -0.00   0.06     0.10  -0.00  -0.12
    11   8    -0.06   0.04  -0.06     0.03  -0.04   0.03    -0.02  -0.05   0.05
    12   1    -0.09   0.09  -0.13     0.12  -0.12   0.13    -0.06  -0.02   0.02
    13   6    -0.02  -0.01  -0.05    -0.03   0.02  -0.06     0.05  -0.15   0.19
    14   1     0.09  -0.20   0.14    -0.23   0.37  -0.41     0.05  -0.15   0.19
    15   1     0.16   0.10  -0.27    -0.37  -0.20   0.26     0.07  -0.09   0.41
    16   1    -0.30   0.09  -0.04     0.46  -0.07  -0.05     0.12  -0.35   0.13
    17   6    -0.06  -0.01  -0.03    -0.01  -0.03   0.00    -0.03   0.04  -0.01
    18   6    -0.02  -0.05   0.02    -0.02  -0.01  -0.01    -0.05   0.03  -0.02
    19   6    -0.05  -0.02  -0.04    -0.00  -0.04  -0.00    -0.06   0.08  -0.03
    20   1    -0.07  -0.01  -0.06     0.01  -0.07   0.01    -0.06   0.10  -0.04
    21   6     0.06  -0.15   0.14    -0.05   0.05  -0.04    -0.02  -0.00  -0.01
    22   1     0.03  -0.12   0.11    -0.05   0.06  -0.05    -0.04  -0.01  -0.01
    23   1     0.03  -0.34   0.17    -0.04   0.09  -0.06    -0.02  -0.03  -0.01
    24   1     0.18  -0.09   0.28    -0.11   0.03  -0.06     0.01   0.01   0.01
    25   6    -0.10   0.03  -0.07    -0.00  -0.06   0.04     0.06  -0.07   0.10
    26   1    -0.10   0.01  -0.10    -0.00  -0.04   0.08     0.32  -0.06   0.19
    27   1    -0.12   0.08  -0.03    -0.00  -0.09   0.03    -0.06  -0.30   0.20
    28   1    -0.13   0.04  -0.10     0.00  -0.09   0.05     0.01   0.04   0.00
    29   1     0.03  -0.11   0.04     0.01  -0.04  -0.01    -0.05   0.05   0.02
                     10                     11                     12
                      A                      A                      A
 Frequencies --    145.9766               190.0365               254.6683
 Red. masses --      2.0796                 1.1123                 1.2522
 Frc consts  --      0.0261                 0.0237                 0.0478
 IR Inten    --      2.5755                 0.3437                68.5526
  Atom  AN      X      Y      Z        X      Y      Z        X      Y      Z
     1   6     0.02  -0.00   0.01     0.02  -0.02   0.02     0.00  -0.01   0.02
     2   6     0.01   0.00   0.00     0.01  -0.01   0.01     0.00  -0.00   0.02
     3   6    -0.05  -0.02   0.03    -0.01  -0.01   0.02    -0.00  -0.00   0.01
     4   6    -0.02   0.04  -0.04     0.00   0.00  -0.00    -0.02   0.02  -0.01
     5   6     0.00   0.00  -0.01     0.00  -0.01  -0.00     0.00  -0.00   0.00
     6   1     0.01   0.02  -0.03     0.01  -0.01  -0.01     0.00  -0.00   0.00
     7   6     0.03  -0.01  -0.02     0.01  -0.01  -0.01     0.01  -0.01  -0.00
     8   1     0.06  -0.01  -0.05     0.03  -0.01  -0.02     0.01  -0.01  -0.01
     9  16    -0.01  -0.03   0.01    -0.00  -0.01   0.01     0.00  -0.01   0.00
    10   7    -0.04  -0.01   0.02    -0.01  -0.01   0.02    -0.00  -0.00   0.01
    11   8    -0.07   0.12  -0.11     0.01  -0.01   0.00    -0.05  -0.00  -0.03
    12   1    -0.00   0.08  -0.06     0.03  -0.04   0.04     0.47  -0.50   0.62
    13   6     0.05  -0.07   0.08    -0.02   0.03  -0.02     0.04   0.02  -0.02
    14   1    -0.11   0.21  -0.22    -0.02   0.03  -0.02     0.08  -0.07   0.00
    15   1    -0.21  -0.22   0.48    -0.03   0.01  -0.07     0.11   0.05  -0.09
    16   1     0.50  -0.27   0.05    -0.03   0.07  -0.01     0.01   0.10   0.01
    17   6     0.00   0.02  -0.01    -0.01   0.03  -0.03    -0.03   0.04  -0.03
    18   6     0.01   0.01  -0.00    -0.01   0.02  -0.02    -0.03   0.04  -0.04
    19   6     0.00   0.02  -0.01     0.00   0.01  -0.00    -0.02   0.03  -0.02
    20   1    -0.01   0.04  -0.03     0.01   0.01  -0.00    -0.01   0.02  -0.01
    21   6     0.07  -0.08   0.08    -0.00   0.02  -0.00     0.02  -0.02   0.01
    22   1     0.06  -0.08   0.07    -0.09   0.15  -0.16     0.01  -0.07   0.03
    23   1     0.04  -0.20   0.10     0.09  -0.20  -0.05    -0.02  -0.06   0.03
    24   1     0.18  -0.04   0.15     0.01   0.08   0.23     0.10  -0.01   0.00
    25   6    -0.01   0.04  -0.04    -0.00   0.01  -0.01     0.02  -0.02   0.03
    26   1     0.01   0.03  -0.06     0.51  -0.09   0.02    -0.03   0.03   0.09
    27   1    -0.02   0.06  -0.01    -0.30  -0.26   0.35     0.08  -0.07  -0.06
    28   1    -0.02   0.06  -0.06    -0.20   0.32  -0.34     0.08  -0.09   0.12
    29   1     0.02  -0.00   0.01     0.02  -0.01   0.02     0.00  -0.02   0.03
                     13                     14                     15
                      A                      A                      A
 Frequencies --    296.2632               302.3615               326.1759
 Red. masses --      3.4966                 2.6206                 2.8390
 Frc consts  --      0.1808                 0.1412                 0.1780
 IR Inten    --      7.2053                 1.0646                 9.5187
  Atom  AN      X      Y      Z        X      Y      Z        X      Y      Z
     1   6     0.04  -0.07   0.05    -0.08   0.01   0.01     0.01  -0.06   0.06
     2   6    -0.07   0.09  -0.09    -0.06   0.02   0.02     0.05  -0.10   0.07
     3   6    -0.01   0.00   0.02     0.01  -0.00  -0.00     0.00   0.00   0.00
     4   6    -0.09   0.12  -0.11    -0.06  -0.00   0.07     0.00  -0.04   0.04
     5   6     0.00  -0.01   0.00     0.00   0.00   0.00     0.00  -0.02   0.00
     6   1     0.01  -0.01  -0.01    -0.00   0.00   0.00     0.00  -0.02   0.00
     7   6     0.03  -0.01  -0.03    -0.01   0.00   0.01     0.01  -0.02   0.00
     8   1     0.05  -0.01  -0.06    -0.02   0.00   0.02     0.01  -0.02  -0.00
     9  16    -0.01  -0.01   0.02     0.00   0.01  -0.00     0.01  -0.02   0.01
    10   7    -0.02  -0.01   0.04     0.01   0.00  -0.01     0.01  -0.01   0.01
    11   8     0.09  -0.10   0.13    -0.10  -0.01   0.05     0.04   0.08   0.05
    12   1    -0.29   0.23  -0.28    -0.19   0.07  -0.05    -0.05   0.26  -0.23
    13   6     0.04   0.01  -0.03     0.24   0.05  -0.11    -0.02   0.01  -0.05
    14   1     0.06  -0.05  -0.06     0.25  -0.10  -0.38    -0.07   0.09  -0.13
    15   1     0.10   0.08   0.07     0.33   0.14  -0.00    -0.10  -0.07  -0.16
    16   1     0.06  -0.08  -0.06     0.44   0.15  -0.07     0.02   0.15  -0.01
    17   6    -0.07   0.09  -0.08     0.00  -0.03   0.07    -0.10   0.06  -0.07
    18   6    -0.12   0.16  -0.16    -0.02  -0.04   0.07    -0.07  -0.01   0.00
    19   6     0.05  -0.06   0.07    -0.02  -0.01   0.05    -0.13   0.10  -0.09
    20   1     0.17  -0.21   0.23    -0.02  -0.00   0.05    -0.19   0.17  -0.17
    21   6     0.04  -0.07   0.02    -0.02  -0.08  -0.09    -0.08   0.01   0.07
    22   1     0.11  -0.26   0.19    -0.14  -0.11  -0.18    -0.02   0.01   0.12
    23   1    -0.15  -0.13   0.14     0.12  -0.08  -0.17    -0.14   0.05   0.10
    24   1     0.33  -0.04  -0.08    -0.03  -0.08  -0.09    -0.09  -0.00   0.03
    25   6     0.03  -0.01   0.02     0.06   0.05  -0.04     0.21  -0.02  -0.07
    26   1    -0.01   0.05   0.12     0.14  -0.04  -0.17     0.24  -0.01  -0.05
    27   1     0.08  -0.11  -0.09     0.05   0.07  -0.02     0.32  -0.21  -0.29
    28   1     0.10  -0.09   0.13     0.07   0.21  -0.08     0.40   0.07   0.14
    29   1     0.05  -0.09   0.10    -0.08   0.01   0.02     0.01  -0.06   0.01
                     16                     17                     18
                      A                      A                      A
 Frequencies --    334.3118               364.0949               454.8709
 Red. masses --      2.5661                 3.3632                 5.6727
 Frc consts  --      0.1690                 0.2627                 0.6915
 IR Inten    --      7.6483                 5.0105                 1.7127
  Atom  AN      X      Y      Z        X      Y      Z        X      Y      Z
     1   6     0.03  -0.03   0.06     0.01  -0.00  -0.04    -0.04   0.06  -0.06
     2   6     0.07  -0.05   0.10    -0.01  -0.03  -0.05     0.08  -0.11   0.12
     3   6    -0.00   0.00   0.00     0.00   0.00  -0.00    -0.20  -0.00   0.30
     4   6     0.03  -0.02   0.05    -0.03   0.01   0.03     0.02  -0.02   0.04
     5   6     0.00  -0.01   0.00    -0.00   0.00   0.00     0.09   0.02  -0.13
     6   1     0.00  -0.01   0.00    -0.00   0.00   0.00     0.19   0.02  -0.27
     7   6     0.00  -0.01   0.00    -0.00   0.00  -0.00    -0.18   0.04   0.24
     8   1     0.00  -0.01   0.01    -0.00   0.00  -0.00    -0.29   0.05   0.42
     9  16     0.00  -0.02   0.00    -0.00   0.00  -0.00     0.06   0.00  -0.13
    10   7     0.00  -0.01  -0.00    -0.00   0.00   0.00     0.08   0.01  -0.13
    11   8    -0.04  -0.04  -0.01     0.14   0.23   0.12    -0.01   0.02  -0.00
    12   1    -0.31   0.17  -0.25     0.47   0.11   0.16    -0.04   0.06  -0.06
    13   6     0.02   0.06  -0.01    -0.09  -0.07   0.00     0.00   0.01   0.01
    14   1    -0.03   0.14  -0.12    -0.08  -0.05   0.13    -0.04   0.08  -0.06
    15   1    -0.06  -0.02  -0.09    -0.08  -0.07  -0.02    -0.07  -0.08  -0.13
    16   1     0.08   0.18   0.02    -0.17  -0.12  -0.01     0.02   0.16   0.05
    17   6    -0.02   0.09  -0.06    -0.02   0.01   0.05    -0.01  -0.00  -0.02
    18   6     0.04   0.04  -0.01    -0.06  -0.01   0.04    -0.07   0.09  -0.09
    19   6    -0.04   0.11  -0.11    -0.01  -0.03   0.02     0.06  -0.10   0.08
    20   1    -0.09   0.19  -0.18    -0.03  -0.08   0.01     0.13  -0.19   0.18
    21   6     0.10  -0.06  -0.13     0.01  -0.18  -0.19     0.01  -0.01   0.01
    22   1    -0.00  -0.16  -0.15    -0.19  -0.29  -0.29     0.04  -0.08   0.08
    23   1     0.17  -0.06  -0.17     0.19  -0.23  -0.29    -0.09  -0.12   0.07
    24   1     0.16  -0.06  -0.17     0.11  -0.16  -0.20     0.19   0.02   0.02
    25   6    -0.14  -0.03   0.14    -0.01   0.03   0.03    -0.00  -0.01  -0.02
    26   1    -0.23   0.11   0.34     0.01   0.00  -0.02     0.00  -0.02  -0.03
    27   1    -0.12  -0.08   0.10    -0.01   0.04   0.03    -0.01  -0.01  -0.02
    28   1    -0.16  -0.27   0.17    -0.01   0.08   0.02    -0.01  -0.00  -0.03
    29   1     0.02  -0.00   0.03     0.00  -0.00  -0.03    -0.02   0.02  -0.03
                     19                     20                     21
                      A                      A                      A
 Frequencies --    463.3232               500.0193               506.6711
 Red. masses --      4.7624                 4.9839                 5.7221
 Frc consts  --      0.6023                 0.7342                 0.8655
 IR Inten    --      2.2799                 6.5994                 4.0381
  Atom  AN      X      Y      Z        X      Y      Z        X      Y      Z
     1   6     0.09   0.02  -0.06    -0.00   0.18  -0.12    -0.16   0.00  -0.10
     2   6    -0.03  -0.17  -0.12     0.19  -0.12   0.15    -0.01  -0.18   0.11
     3   6    -0.01   0.02   0.01     0.09  -0.07  -0.13     0.08  -0.07  -0.11
     4   6    -0.08  -0.06   0.00     0.12  -0.08   0.00    -0.07  -0.01   0.19
     5   6     0.00  -0.00  -0.01    -0.05   0.03   0.07    -0.05   0.02   0.06
     6   1     0.01  -0.00  -0.01    -0.12   0.04   0.17    -0.12   0.04   0.16
     7   6    -0.01  -0.00   0.01     0.07   0.01  -0.09     0.06   0.01  -0.08
     8   1    -0.01   0.00   0.02     0.10   0.01  -0.13     0.08   0.01  -0.11
     9  16     0.00  -0.01  -0.00    -0.04   0.04   0.03    -0.03   0.04   0.02
    10   7     0.01  -0.00  -0.01    -0.01   0.02  -0.01    -0.01   0.01  -0.01
    11   8    -0.07  -0.04   0.01     0.04  -0.05  -0.14    -0.15   0.11   0.17
    12   1    -0.09  -0.03  -0.00    -0.08  -0.00  -0.17    -0.07   0.12   0.12
    13   6    -0.03  -0.22  -0.20     0.04   0.05   0.04    -0.04  -0.10  -0.05
    14   1    -0.04  -0.21  -0.22    -0.02   0.18  -0.01    -0.08  -0.03  -0.11
    15   1    -0.04  -0.23  -0.22    -0.09  -0.08  -0.15    -0.12  -0.18  -0.20
    16   1    -0.03  -0.19  -0.19     0.04   0.25   0.10    -0.03   0.06  -0.01
    17   6     0.09   0.17   0.10    -0.06   0.02   0.07     0.07  -0.03  -0.09
    18   6    -0.04   0.00   0.03    -0.18   0.06  -0.09     0.06   0.17  -0.08
    19   6     0.13   0.07  -0.04     0.01  -0.07   0.17     0.11  -0.13  -0.04
    20   1     0.05  -0.01  -0.09     0.04  -0.24   0.25     0.23  -0.16   0.08
    21   6    -0.06   0.02   0.06    -0.13  -0.12  -0.00     0.20   0.14   0.01
    22   1     0.00   0.07   0.09    -0.14  -0.24   0.07     0.24   0.09   0.08
    23   1    -0.12   0.02   0.10    -0.22  -0.25   0.05     0.08   0.03   0.09
    24   1    -0.10   0.02   0.09     0.12  -0.07  -0.01     0.36   0.18   0.04
    25   6     0.05   0.23   0.19    -0.00   0.06   0.05     0.01  -0.07  -0.09
    26   1     0.02   0.26   0.24     0.01   0.02  -0.01     0.01  -0.08  -0.10
    27   1     0.03   0.25   0.23     0.00   0.07   0.04     0.00  -0.05  -0.07
    28   1     0.00   0.15   0.16     0.01   0.11   0.04    -0.01  -0.07  -0.10
    29   1     0.04   0.14   0.05     0.03   0.12  -0.18    -0.16   0.01   0.01
                     22                     23                     24
                      A                      A                      A
 Frequencies --    547.4497               562.5639               579.5192
 Red. masses --      2.8941                12.8542                 4.3318
 Frc consts  --      0.5110                 2.3968                 0.8571
 IR Inten    --      2.3800                 1.4734                 7.8939
  Atom  AN      X      Y      Z        X      Y      Z        X      Y      Z
     1   6     0.06  -0.10  -0.12    -0.02  -0.02   0.03    -0.01   0.02  -0.02
     2   6     0.11   0.03  -0.06    -0.01  -0.00  -0.00    -0.01   0.00  -0.01
     3   6    -0.01  -0.01   0.01    -0.26  -0.23  -0.21     0.16  -0.03  -0.17
     4   6     0.04   0.12   0.04    -0.00  -0.01  -0.01     0.04  -0.06   0.06
     5   6     0.01  -0.00  -0.01    -0.06  -0.13  -0.15     0.16   0.01  -0.19
     6   1     0.02   0.00  -0.04     0.06   0.13  -0.34     0.49  -0.04  -0.64
     7   6    -0.01  -0.00   0.01    -0.01  -0.25   0.11    -0.12   0.04   0.17
     8   1    -0.01  -0.00   0.01    -0.12  -0.33  -0.09     0.10   0.03  -0.10
     9  16     0.01   0.01  -0.00     0.26   0.34   0.15    -0.03  -0.02  -0.03
    10   7    -0.01  -0.00   0.01    -0.30  -0.27  -0.10    -0.15   0.05   0.27
    11   8    -0.09  -0.09  -0.01     0.02   0.00  -0.01    -0.02   0.02  -0.01
    12   1    -0.30  -0.11   0.15     0.04   0.01  -0.03    -0.00   0.02  -0.02
    13   6    -0.03   0.00   0.03     0.00  -0.00  -0.01     0.00  -0.00  -0.00
    14   1    -0.06   0.16   0.22     0.01  -0.02  -0.02     0.01  -0.01   0.00
    15   1    -0.15  -0.09   0.03     0.02   0.01  -0.00     0.01   0.01   0.01
    16   1    -0.17  -0.13  -0.02     0.02  -0.00  -0.01     0.00  -0.02  -0.01
    17   6    -0.10  -0.01   0.11     0.01   0.01  -0.00    -0.04   0.05  -0.06
    18   6    -0.00   0.11   0.11    -0.00   0.00  -0.02     0.01  -0.01   0.01
    19   6    -0.10  -0.10  -0.06     0.00   0.02   0.00     0.02  -0.03   0.03
    20   1    -0.22  -0.20  -0.13    -0.02   0.09  -0.04     0.08  -0.10   0.11
    21   6     0.08   0.03  -0.03     0.00   0.00   0.00     0.00  -0.00   0.00
    22   1    -0.09  -0.13  -0.08     0.02   0.02   0.01    -0.00   0.00  -0.00
    23   1     0.23   0.03  -0.12    -0.02  -0.00   0.02     0.01   0.01  -0.00
    24   1     0.19   0.03  -0.11     0.00   0.01   0.01    -0.02  -0.01  -0.00
    25   6     0.06   0.06   0.02    -0.00   0.01   0.01    -0.00   0.00  -0.00
    26   1     0.13  -0.05  -0.15    -0.01   0.03   0.03     0.02   0.04   0.07
    27   1     0.13   0.02  -0.09    -0.01   0.01   0.02     0.00  -0.09  -0.04
    28   1     0.18   0.29   0.11    -0.01  -0.01   0.01     0.02  -0.03   0.03
    29   1     0.10  -0.19  -0.23    -0.11   0.16  -0.10     0.01  -0.01   0.03
                     25                     26                     27
                      A                      A                      A
 Frequencies --    583.1511               661.7089               676.7559
 Red. masses --      3.7453                 4.9136                 7.7935
 Frc consts  --      0.7504                 1.2676                 2.1030
 IR Inten    --      5.9273                 1.4767                49.8605
  Atom  AN      X      Y      Z        X      Y      Z        X      Y      Z
     1   6     0.01   0.01  -0.05    -0.21  -0.01   0.09     0.02   0.03  -0.07
     2   6    -0.05   0.09  -0.09    -0.10  -0.03   0.01     0.03   0.04  -0.05
     3   6    -0.04  -0.01   0.04     0.00   0.07   0.00    -0.01   0.43  -0.05
     4   6     0.12  -0.14   0.16     0.08  -0.08  -0.03     0.07  -0.09   0.13
     5   6    -0.04   0.00   0.05    -0.02  -0.02  -0.02    -0.19  -0.11  -0.16
     6   1    -0.11   0.02   0.15    -0.02  -0.05  -0.00    -0.20  -0.32  -0.15
     7   6     0.03  -0.00  -0.04    -0.03  -0.01  -0.02    -0.22  -0.09  -0.15
     8   1    -0.02  -0.00   0.02    -0.03  -0.01  -0.00    -0.22  -0.08  -0.12
     9  16     0.00   0.01   0.00     0.02  -0.02   0.02     0.18  -0.12   0.13
    10   7     0.03  -0.01  -0.07     0.01   0.02   0.01     0.02   0.11   0.05
    11   8    -0.05   0.03  -0.04     0.15  -0.02  -0.16    -0.08   0.03   0.03
    12   1    -0.04   0.03  -0.04     0.18  -0.01  -0.21    -0.06   0.03   0.03
    13   6    -0.00   0.01   0.00    -0.03  -0.12  -0.10     0.01   0.03   0.02
    14   1     0.03  -0.06   0.08    -0.01  -0.25  -0.24     0.02   0.06   0.12
    15   1     0.06   0.09   0.17     0.05  -0.05  -0.09    -0.00   0.04   0.08
    16   1    -0.02  -0.18  -0.05     0.05  -0.06  -0.08    -0.04  -0.06  -0.01
    17   6    -0.16   0.20  -0.19    -0.10  -0.02   0.07     0.04  -0.04   0.02
    18   6     0.06  -0.09   0.11     0.04   0.06  -0.02    -0.06   0.07  -0.07
    19   6     0.06  -0.09   0.08    -0.20   0.02   0.17     0.05   0.01  -0.02
    20   1     0.22  -0.33   0.30    -0.13   0.03   0.24     0.08  -0.06   0.03
    21   6     0.01  -0.01   0.00     0.22   0.14  -0.03    -0.06  -0.02  -0.00
    22   1    -0.04   0.03  -0.06     0.18   0.06  -0.03    -0.03  -0.08   0.06
    23   1     0.12   0.11  -0.07     0.25   0.10  -0.05    -0.15  -0.13   0.06
    24   1    -0.16  -0.05  -0.03     0.32   0.15  -0.06     0.09   0.01   0.02
    25   6    -0.00   0.02  -0.01     0.00   0.07   0.07    -0.01  -0.05  -0.03
    26   1     0.12   0.16   0.28     0.04   0.00  -0.03    -0.04  -0.07  -0.08
    27   1     0.03  -0.35  -0.16     0.05   0.05  -0.00    -0.02   0.03   0.01
    28   1     0.11  -0.06   0.15     0.08   0.21   0.13    -0.04  -0.05  -0.07
    29   1     0.04  -0.05   0.02    -0.22  -0.00   0.03    -0.09   0.24  -0.27
                     28                     29                     30
                      A                      A                      A
 Frequencies --    717.3172               729.3464               742.1938
 Red. masses --      4.8728                 1.2517                 4.6140
 Frc consts  --      1.4772                 0.3923                 1.4975
 IR Inten    --      3.8794                36.8012                 1.1326
  Atom  AN      X      Y      Z        X      Y      Z        X      Y      Z
     1   6    -0.00   0.13  -0.04     0.00   0.00   0.00     0.22   0.19   0.08
     2   6     0.11  -0.13   0.11    -0.00   0.00  -0.00     0.06   0.04  -0.10
     3   6     0.02   0.03  -0.02     0.01  -0.02  -0.01    -0.03   0.03  -0.00
     4   6    -0.16   0.25  -0.22     0.00  -0.00   0.00     0.07   0.00   0.08
     5   6    -0.07  -0.01  -0.06     0.05  -0.00  -0.07     0.04  -0.00   0.03
     6   1    -0.08  -0.09  -0.04    -0.18   0.01   0.24     0.05   0.08   0.02
     7   6    -0.07  -0.01  -0.06     0.05  -0.00  -0.07     0.05  -0.00   0.04
     8   1    -0.08  -0.00  -0.03    -0.55   0.04   0.77     0.05  -0.01   0.03
     9  16     0.05  -0.02   0.04    -0.00   0.00   0.00    -0.02   0.01  -0.02
    10   7     0.00   0.06   0.01    -0.04   0.01   0.05    -0.02  -0.06  -0.02
    11   8     0.02  -0.04   0.04    -0.00   0.00   0.00    -0.07  -0.00   0.03
    12   1    -0.05  -0.05   0.10    -0.00   0.00  -0.00    -0.17  -0.02   0.13
    13   6     0.01  -0.07  -0.03    -0.00  -0.00  -0.00    -0.01  -0.15  -0.16
    14   1    -0.05   0.06  -0.10     0.00  -0.00   0.00    -0.02  -0.09  -0.04
    15   1    -0.11  -0.22  -0.27     0.00   0.00   0.00    -0.05  -0.17  -0.10
    16   1    -0.00   0.18   0.04     0.00  -0.00  -0.00    -0.08  -0.28  -0.20
    17   6    -0.09   0.08  -0.09     0.00  -0.00   0.00    -0.04  -0.05   0.04
    18   6     0.11  -0.14   0.17    -0.00   0.00  -0.00    -0.04   0.07   0.03
    19   6     0.01  -0.02   0.13    -0.00   0.00  -0.00    -0.06   0.17   0.17
    20   1     0.09  -0.12   0.22    -0.00   0.01  -0.00    -0.10   0.19   0.13
    21   6     0.04  -0.01   0.02    -0.00  -0.00  -0.00     0.01   0.02   0.00
    22   1    -0.05   0.09  -0.12    -0.00  -0.00   0.00    -0.11  -0.13  -0.01
    23   1     0.27   0.23  -0.12    -0.00  -0.00   0.00     0.09  -0.03  -0.04
    24   1    -0.30  -0.09  -0.05     0.00   0.00   0.00     0.18   0.03  -0.06
    25   6    -0.03  -0.04  -0.05    -0.00  -0.00  -0.00    -0.07  -0.20  -0.14
    26   1     0.04   0.03   0.08    -0.00  -0.00  -0.00    -0.07  -0.24  -0.20
    27   1    -0.02  -0.23  -0.13    -0.00   0.00   0.00    -0.06  -0.19  -0.16
    28   1     0.02  -0.07   0.02    -0.00  -0.00  -0.00    -0.06  -0.16  -0.13
    29   1     0.07  -0.03   0.08     0.00  -0.00   0.00     0.20   0.23   0.03
                     31                     32                     33
                      A                      A                      A
 Frequencies --    799.9330               829.6276               853.4182
 Red. masses --      5.7994                 1.2854                 4.8957
 Frc consts  --      2.1864                 0.5213                 2.1008
 IR Inten    --    142.5341                22.9722                 0.8566
  Atom  AN      X      Y      Z        X      Y      Z        X      Y      Z
     1   6    -0.09  -0.02  -0.05     0.01   0.01  -0.00    -0.00   0.00  -0.00
     2   6     0.04  -0.04   0.03     0.00  -0.01   0.00     0.00  -0.00   0.00
     3   6    -0.10   0.43  -0.11    -0.01   0.01  -0.01    -0.04  -0.02  -0.03
     4   6    -0.04   0.03  -0.05     0.00  -0.01   0.00    -0.00   0.00  -0.00
     5   6     0.17  -0.07   0.11     0.00   0.00   0.00     0.17   0.04   0.14
     6   1     0.17   0.26   0.09     0.00   0.02  -0.01     0.25  -0.08   0.03
     7   6     0.21  -0.07   0.14     0.00   0.00   0.00    -0.20   0.36  -0.18
     8   1     0.12  -0.08   0.21    -0.01   0.00   0.00    -0.64   0.21  -0.38
     9  16    -0.06  -0.02  -0.04     0.00   0.00   0.00     0.05  -0.03   0.04
    10   7    -0.08  -0.23  -0.02    -0.01  -0.02  -0.01    -0.03  -0.26  -0.01
    11   8    -0.00  -0.00   0.01    -0.00   0.00   0.00     0.00  -0.00  -0.00
    12   1     0.01   0.00  -0.00     0.01   0.00  -0.00     0.00   0.00  -0.00
    13   6     0.01   0.03   0.03     0.00  -0.00   0.01     0.00   0.00   0.00
    14   1     0.00   0.07   0.06    -0.01   0.02  -0.01    -0.00   0.00  -0.00
    15   1    -0.04  -0.02  -0.02    -0.01  -0.02  -0.03     0.00  -0.00  -0.01
    16   1    -0.01   0.08   0.05     0.00   0.04   0.02     0.00   0.01   0.00
    17   6    -0.02   0.02  -0.03     0.02  -0.02   0.01    -0.00   0.00  -0.00
    18   6     0.03  -0.03   0.01     0.00  -0.01  -0.00    -0.00  -0.00  -0.00
    19   6     0.03  -0.04   0.01    -0.08   0.09  -0.09     0.01  -0.01   0.01
    20   1     0.11  -0.11   0.10     0.42  -0.52   0.56    -0.03   0.03  -0.04
    21   6     0.01  -0.01   0.00     0.00  -0.00   0.00     0.00   0.00   0.00
    22   1     0.02   0.05  -0.01     0.01   0.02  -0.01     0.00   0.00   0.00
    23   1     0.01   0.04  -0.00     0.01   0.02  -0.00     0.00   0.00   0.00
    24   1    -0.09  -0.02   0.01    -0.04  -0.01   0.00     0.00   0.00   0.00
    25   6     0.00   0.02   0.01     0.01  -0.01   0.02    -0.00   0.00  -0.00
    26   1     0.02   0.04   0.04    -0.05  -0.06  -0.09     0.01   0.01   0.01
    27   1     0.00  -0.02  -0.00     0.01   0.15   0.07    -0.00  -0.01  -0.00
    28   1     0.01   0.02   0.02    -0.04   0.04  -0.07     0.00  -0.00   0.01
    29   1    -0.27   0.33  -0.40     0.16  -0.29   0.23    -0.02   0.03  -0.02
                     34                     35                     36
                      A                      A                      A
 Frequencies --    884.7338               901.6747               939.4075
 Red. masses --      1.3153                 3.2041                 1.6055
 Frc consts  --      0.6066                 1.5348                 0.8348
 IR Inten    --      1.0921                23.8366                 3.3091
  Atom  AN      X      Y      Z        X      Y      Z        X      Y      Z
     1   6     0.00  -0.00   0.00     0.18   0.07  -0.07     0.05   0.06  -0.04
     2   6     0.00   0.00  -0.00    -0.00  -0.04  -0.05    -0.07  -0.03   0.01
     3   6    -0.00   0.00  -0.00    -0.00   0.01  -0.00    -0.00   0.06  -0.01
     4   6     0.00   0.00  -0.00    -0.08  -0.13  -0.07    -0.02  -0.02   0.02
     5   6     0.10  -0.01  -0.11    -0.01   0.00  -0.01    -0.01   0.00  -0.01
     6   1    -0.52   0.04   0.74    -0.01   0.02  -0.00    -0.01   0.06  -0.01
     7   6    -0.05   0.02   0.06     0.00  -0.00   0.00     0.01  -0.01   0.01
     8   1     0.20  -0.01  -0.33     0.01   0.00   0.01     0.02  -0.00   0.02
     9  16    -0.00  -0.00   0.00     0.00   0.00   0.00     0.00  -0.00   0.00
    10   7    -0.01  -0.01   0.01    -0.01  -0.01  -0.01    -0.02  -0.03  -0.01
    11   8     0.00  -0.00  -0.00    -0.08   0.03   0.10     0.04  -0.01  -0.04
    12   1    -0.00   0.00   0.00     0.21   0.06  -0.10     0.07  -0.00  -0.08
    13   6     0.00  -0.00  -0.00     0.01   0.08   0.07    -0.05   0.00   0.06
    14   1     0.00   0.00   0.00     0.02   0.02  -0.01    -0.01  -0.19  -0.25
    15   1    -0.00  -0.00   0.00     0.08   0.13   0.07     0.13   0.14  -0.00
    16   1    -0.00  -0.00  -0.00     0.09   0.15   0.10     0.17   0.25   0.14
    17   6     0.00   0.00   0.00    -0.06  -0.04   0.01    -0.01   0.02   0.04
    18   6     0.00   0.00   0.00    -0.02  -0.13  -0.12    -0.03   0.03   0.05
    19   6    -0.00   0.00  -0.00    -0.11  -0.02   0.10     0.08  -0.04  -0.05
    20   1     0.00  -0.00   0.01    -0.35  -0.10  -0.09    -0.11   0.03  -0.25
    21   6    -0.00  -0.00   0.00     0.14   0.05  -0.06     0.00   0.04   0.03
    22   1    -0.00  -0.00  -0.00     0.47   0.34   0.04    -0.16  -0.14  -0.01
    23   1     0.00   0.00  -0.00    -0.14   0.04   0.10     0.15   0.01  -0.06
    24   1    -0.00  -0.00  -0.00    -0.03   0.07   0.12     0.16   0.04  -0.08
    25   6    -0.00  -0.00  -0.00     0.00   0.05   0.05    -0.03  -0.03  -0.01
    26   1    -0.00  -0.00  -0.00     0.01   0.06   0.05     0.05  -0.11  -0.10
    27   1    -0.00   0.00   0.00     0.01   0.04   0.04     0.03  -0.10  -0.13
    28   1    -0.00  -0.00  -0.00     0.03   0.08   0.07     0.06   0.09   0.06
    29   1    -0.00   0.00  -0.00     0.30  -0.17  -0.09     0.26  -0.33   0.51
                     37                     38                     39
                      A                      A                      A
 Frequencies --    955.8760              1026.3594              1041.7428
 Red. masses --      1.4153                 1.3574                 1.5937
 Frc consts  --      0.7619                 0.8424                 1.0190
 IR Inten    --      7.5227                14.0291                 1.5025
  Atom  AN      X      Y      Z        X      Y      Z        X      Y      Z
     1   6     0.07  -0.01   0.02    -0.02   0.01   0.01    -0.03   0.02   0.02
     2   6    -0.03  -0.04  -0.00    -0.01   0.02   0.01    -0.01  -0.03  -0.06
     3   6     0.00  -0.05   0.01     0.00  -0.00  -0.00    -0.00  -0.01   0.00
     4   6    -0.05  -0.03  -0.02     0.02   0.03   0.02    -0.07  -0.09  -0.04
     5   6     0.01  -0.00   0.01     0.00  -0.00  -0.00     0.00   0.00   0.00
     6   1     0.01  -0.05   0.01    -0.00  -0.00   0.00     0.00  -0.00   0.00
     7   6    -0.01   0.00  -0.00    -0.00   0.00  -0.00    -0.00  -0.00  -0.00
     8   1    -0.02  -0.00  -0.02     0.00   0.00   0.00    -0.00  -0.00  -0.00
     9  16    -0.00   0.00  -0.00    -0.00  -0.00   0.00    -0.00   0.00  -0.00
    10   7     0.02   0.03   0.01    -0.00   0.00  -0.00     0.00   0.00   0.00
    11   8     0.01  -0.01  -0.01     0.01   0.00  -0.01    -0.01  -0.01   0.00
    12   1     0.09   0.01  -0.08    -0.08  -0.01   0.06     0.21   0.02  -0.16
    13   6    -0.04   0.03   0.04     0.02  -0.02  -0.02     0.13   0.05   0.00
    14   1     0.02  -0.16  -0.12    -0.01   0.08   0.06     0.02   0.51   0.42
    15   1     0.12   0.17   0.10    -0.06  -0.09  -0.05    -0.22  -0.26  -0.09
    16   1     0.13   0.10   0.07    -0.06  -0.04  -0.03    -0.25  -0.08  -0.06
    17   6    -0.03   0.02   0.04    -0.03   0.00   0.04     0.01   0.01   0.01
    18   6    -0.03   0.00   0.03     0.03  -0.01  -0.03    -0.05  -0.02   0.02
    19   6     0.03   0.03  -0.07     0.05   0.01  -0.03     0.03   0.01  -0.01
    20   1     0.15  -0.25   0.12     0.10   0.07  -0.01     0.04   0.04  -0.01
    21   6     0.03   0.03   0.02     0.01  -0.05  -0.06     0.02   0.06   0.04
    22   1    -0.06  -0.04  -0.02     0.30   0.22   0.03    -0.18  -0.13  -0.02
    23   1     0.14   0.06  -0.04    -0.27  -0.02   0.10     0.24   0.04  -0.08
    24   1     0.06   0.02  -0.05    -0.18  -0.03   0.15     0.18   0.05  -0.11
    25   6    -0.04  -0.04  -0.00    -0.11  -0.02   0.05    -0.02  -0.01   0.00
    26   1     0.03  -0.13  -0.14     0.15  -0.24  -0.25     0.03  -0.05  -0.05
    27   1     0.03  -0.07  -0.12     0.11  -0.17  -0.30     0.02  -0.06  -0.07
    28   1     0.05   0.13   0.06     0.21   0.45   0.30     0.03   0.07   0.05
    29   1    -0.23   0.60  -0.44    -0.03   0.03   0.15    -0.05   0.07   0.22
                     40                     41                     42
                      A                      A                      A
 Frequencies --   1043.4286              1051.1794              1062.9199
 Red. masses --      1.4304                 1.4604                 1.6845
 Frc consts  --      0.9175                 0.9508                 1.1213
 IR Inten    --      4.7485                 0.0811                16.8209
  Atom  AN      X      Y      Z        X      Y      Z        X      Y      Z
     1   6    -0.01   0.00  -0.00     0.01  -0.02  -0.00     0.00  -0.01   0.00
     2   6     0.02  -0.03   0.02    -0.05   0.08  -0.07    -0.01   0.01  -0.01
     3   6    -0.00   0.00  -0.00    -0.01  -0.01   0.00     0.04   0.00   0.02
     4   6    -0.02   0.02  -0.02     0.02   0.00   0.01     0.00   0.00   0.00
     5   6     0.00  -0.00   0.00     0.02  -0.01   0.01    -0.11   0.04  -0.08
     6   1     0.00   0.00   0.00     0.02  -0.00   0.01    -0.12  -0.17  -0.07
     7   6     0.00  -0.00   0.00     0.00  -0.01   0.00    -0.02   0.08  -0.01
     8   1    -0.00  -0.00  -0.00    -0.08  -0.04  -0.05     0.70   0.40   0.47
     9  16    -0.00  -0.00   0.00    -0.00  -0.00  -0.00     0.00   0.01   0.00
    10   7    -0.00   0.00  -0.00     0.00   0.02  -0.00     0.03  -0.15   0.03
    11   8     0.00  -0.00   0.00    -0.00   0.00   0.00    -0.00   0.00   0.00
    12   1     0.01  -0.01   0.01    -0.04   0.00   0.02    -0.00  -0.00   0.00
    13   6    -0.01   0.03  -0.03     0.04  -0.10   0.10     0.01  -0.01   0.01
    14   1     0.03  -0.05   0.06    -0.11   0.15  -0.22    -0.01   0.02  -0.02
    15   1     0.03   0.09   0.15    -0.09  -0.31  -0.50    -0.01  -0.04  -0.06
    16   1     0.00  -0.16  -0.08    -0.00   0.55   0.27    -0.00   0.06   0.03
    17   6     0.03  -0.03   0.03     0.02  -0.03   0.02     0.00  -0.01   0.00
    18   6     0.04  -0.06   0.06     0.01  -0.00   0.01     0.00   0.00  -0.00
    19   6    -0.01   0.02  -0.01    -0.01   0.00  -0.00    -0.00   0.00  -0.00
    20   1     0.07  -0.07   0.08     0.01  -0.05   0.04     0.01  -0.02   0.02
    21   6    -0.06   0.08  -0.07    -0.02   0.01  -0.02    -0.00  -0.00   0.00
    22   1     0.06  -0.19   0.18     0.02  -0.03   0.03    -0.00  -0.00   0.00
    23   1    -0.30  -0.37   0.09    -0.08  -0.07   0.02    -0.00  -0.00   0.00
    24   1     0.51   0.21   0.06     0.07   0.03   0.02     0.00  -0.00   0.00
    25   6    -0.04   0.05  -0.05    -0.01   0.03  -0.03    -0.00   0.01  -0.01
    26   1     0.14   0.18   0.24     0.06   0.13   0.16     0.02   0.03   0.03
    27   1    -0.05  -0.32  -0.14    -0.04  -0.16  -0.04    -0.01  -0.04  -0.02
    28   1     0.08  -0.09   0.13     0.02  -0.09   0.04     0.01  -0.02   0.01
    29   1     0.01  -0.02   0.02    -0.04   0.08  -0.13    -0.04   0.07  -0.07
                     43                     44                     45
                      A                      A                      A
 Frequencies --   1069.2819              1113.4014              1159.7646
 Red. masses --      1.5710                 1.9706                 1.6502
 Frc consts  --      1.0583                 1.4393                 1.3078
 IR Inten    --      0.9675                47.1383                 5.2401
  Atom  AN      X      Y      Z        X      Y      Z        X      Y      Z
     1   6     0.00  -0.00   0.00    -0.00  -0.00   0.00     0.01   0.01   0.02
     2   6    -0.01   0.02  -0.01    -0.04  -0.04  -0.01    -0.01   0.01   0.01
     3   6     0.00  -0.00   0.00     0.00   0.00  -0.00     0.07   0.01   0.05
     4   6    -0.00   0.01  -0.01    -0.05   0.02   0.06     0.00   0.00  -0.00
     5   6    -0.00   0.00  -0.00    -0.00  -0.00  -0.00    -0.08   0.13  -0.07
     6   1    -0.00  -0.01  -0.00    -0.00  -0.00   0.00    -0.10   0.85  -0.11
     7   6    -0.00   0.00  -0.00     0.00   0.00  -0.00    -0.00  -0.05  -0.00
     8   1     0.02   0.01   0.02     0.00   0.00   0.00    -0.31  -0.18  -0.21
     9  16     0.00   0.00  -0.00    -0.00  -0.00   0.00    -0.00  -0.01  -0.00
    10   7     0.00  -0.00   0.00    -0.00  -0.00  -0.00     0.05  -0.10   0.05
    11   8    -0.00   0.00   0.00     0.06  -0.02  -0.07     0.00   0.00   0.00
    12   1    -0.01   0.00   0.01    -0.11  -0.04   0.05    -0.01  -0.00   0.01
    13   6     0.01  -0.02   0.02     0.04   0.02  -0.00     0.00  -0.01  -0.01
    14   1    -0.02   0.04  -0.03     0.01   0.14   0.13     0.00   0.01   0.00
    15   1    -0.02  -0.06  -0.09    -0.05  -0.04   0.02    -0.01  -0.02  -0.01
    16   1    -0.01   0.09   0.05    -0.06  -0.02  -0.02    -0.01  -0.01  -0.01
    17   6    -0.06   0.08  -0.08    -0.03   0.10   0.11    -0.00  -0.01  -0.01
    18   6     0.04  -0.06   0.06    -0.08   0.02   0.08     0.00  -0.00  -0.00
    19   6     0.02  -0.01   0.01     0.01  -0.01  -0.03    -0.01  -0.01  -0.01
    20   1    -0.03   0.06  -0.05    -0.17  -0.27  -0.10    -0.03  -0.07  -0.01
    21   6    -0.04   0.06  -0.06     0.07  -0.03  -0.08    -0.00   0.00   0.00
    22   1     0.06  -0.13   0.13     0.40   0.27   0.03    -0.00  -0.00   0.00
    23   1    -0.23  -0.27   0.07    -0.27   0.03   0.11     0.00  -0.00  -0.00
    24   1     0.35   0.15   0.06    -0.14   0.01   0.20     0.00   0.00  -0.00
    25   6     0.05  -0.08   0.08     0.06  -0.06  -0.09     0.00   0.01   0.00
    26   1    -0.21  -0.28  -0.36    -0.11   0.07   0.07     0.01   0.01   0.01
    27   1     0.09   0.48   0.19    -0.08  -0.01   0.12     0.00   0.01   0.01
    28   1    -0.11   0.16  -0.18    -0.14  -0.38  -0.26     0.00   0.01   0.01
    29   1    -0.02   0.04  -0.04    -0.08   0.17   0.22    -0.05   0.12  -0.01
                     46                     47                     48
                      A                      A                      A
 Frequencies --   1174.8663              1241.4835              1256.3445
 Red. masses --      1.8539                 1.7410                 3.7535
 Frc consts  --      1.5077                 1.5810                 3.4907
 IR Inten    --      6.6542                54.0272                79.7550
  Atom  AN      X      Y      Z        X      Y      Z        X      Y      Z
     1   6    -0.05  -0.10  -0.09     0.01   0.02   0.01    -0.09   0.01   0.06
     2   6     0.01  -0.06  -0.07    -0.01   0.03   0.03     0.15   0.22   0.11
     3   6     0.01  -0.01   0.01    -0.00   0.00  -0.00    -0.00   0.00  -0.00
     4   6    -0.03  -0.01   0.01    -0.07  -0.01   0.02     0.11  -0.06  -0.16
     5   6    -0.01   0.02  -0.01     0.00  -0.00   0.00     0.00   0.00   0.00
     6   1    -0.01   0.12  -0.02     0.00  -0.00   0.00     0.00   0.01   0.00
     7   6    -0.00  -0.01  -0.00     0.00  -0.00   0.00    -0.00  -0.00  -0.00
     8   1    -0.05  -0.02  -0.03    -0.00  -0.00   0.00    -0.00  -0.00   0.00
     9  16    -0.00  -0.00  -0.00    -0.00   0.00  -0.00    -0.00   0.00  -0.00
    10   7     0.02  -0.01   0.01    -0.00   0.00  -0.00     0.00  -0.00   0.00
    11   8     0.00  -0.01  -0.01    -0.03  -0.04  -0.01    -0.11  -0.02   0.08
    12   1     0.06   0.00  -0.06     0.63   0.05  -0.50     0.52   0.06  -0.37
    13   6    -0.01   0.03   0.04     0.00  -0.02  -0.02    -0.04  -0.07  -0.04
    14   1    -0.00   0.01   0.01    -0.01   0.04   0.04    -0.03  -0.21  -0.23
    15   1     0.04   0.07   0.03    -0.01  -0.02  -0.02     0.00  -0.06  -0.16
    16   1     0.04   0.08   0.06    -0.01  -0.03  -0.02     0.03  -0.13  -0.06
    17   6     0.04   0.09   0.06     0.06   0.05   0.01    -0.03   0.08   0.10
    18   6    -0.03   0.02   0.03     0.15   0.13   0.02    -0.18  -0.07   0.06
    19   6     0.03   0.11   0.09    -0.05  -0.02   0.02     0.08  -0.04  -0.10
    20   1     0.29   0.51   0.20    -0.25  -0.28  -0.07     0.16   0.05  -0.06
    21   6     0.01  -0.00  -0.01    -0.05  -0.05  -0.01     0.06   0.02  -0.03
    22   1     0.06   0.05   0.01    -0.06  -0.05  -0.00     0.21   0.16   0.01
    23   1    -0.03   0.02   0.02    -0.18  -0.03   0.07     0.06   0.09  -0.03
    24   1    -0.01   0.01   0.04    -0.14  -0.04   0.09     0.12   0.05   0.03
    25   6    -0.03  -0.05  -0.03    -0.02  -0.02  -0.01     0.01  -0.02  -0.03
    26   1    -0.01  -0.08  -0.07     0.03  -0.05  -0.04    -0.04  -0.02  -0.04
    27   1    -0.01  -0.08  -0.07     0.02  -0.02  -0.06    -0.03  -0.08  -0.00
    28   1    -0.01  -0.04  -0.03     0.01   0.02   0.00    -0.05  -0.14  -0.08
    29   1     0.12  -0.50  -0.45     0.06  -0.10  -0.17     0.00  -0.17  -0.06
                     49                     50                     51
                      A                      A                      A
 Frequencies --   1282.0174              1297.6785              1319.3741
 Red. masses --      1.9671                 2.1741                 1.7081
 Frc consts  --      1.9049                 2.1571                 1.7518
 IR Inten    --     64.0095                 8.5682                 1.8766
  Atom  AN      X      Y      Z        X      Y      Z        X      Y      Z
     1   6    -0.05  -0.03  -0.01     0.07   0.06   0.02    -0.00  -0.01  -0.00
     2   6     0.10  -0.09  -0.16     0.01   0.02   0.01     0.00  -0.01  -0.01
     3   6    -0.01  -0.01  -0.00     0.01   0.01   0.00     0.02  -0.01   0.02
     4   6     0.09   0.01  -0.06    -0.10   0.01   0.09     0.01   0.00  -0.01
     5   6    -0.00   0.01  -0.00     0.01  -0.02   0.01     0.09  -0.12   0.07
     6   1    -0.00  -0.02  -0.00     0.01   0.06   0.00     0.08   0.77   0.02
     7   6     0.00  -0.00   0.00    -0.01  -0.00  -0.01    -0.13  -0.04  -0.09
     8   1    -0.02  -0.01  -0.02     0.04   0.02   0.03     0.44   0.20   0.31
     9  16    -0.00  -0.00  -0.00     0.00   0.00   0.00     0.01   0.01   0.01
    10   7     0.02  -0.00   0.01    -0.01   0.01  -0.01    -0.04   0.06  -0.03
    11   8    -0.07  -0.01   0.04     0.03  -0.03  -0.05    -0.01   0.00   0.01
    12   1     0.22   0.03  -0.17     0.24  -0.00  -0.22     0.00   0.00   0.00
    13   6    -0.04   0.03   0.05     0.00  -0.02  -0.02    -0.00   0.00   0.01
    14   1    -0.02  -0.02  -0.01    -0.01   0.04   0.04    -0.00  -0.00  -0.01
    15   1     0.14   0.17   0.02     0.02   0.01   0.01     0.01   0.01  -0.01
    16   1     0.17   0.13   0.09     0.01   0.02  -0.00     0.01  -0.00   0.00
    17   6    -0.03  -0.02   0.01    -0.07  -0.15  -0.09     0.00   0.01   0.01
    18   6     0.05   0.07   0.03    -0.07   0.06   0.11     0.01  -0.00  -0.01
    19   6    -0.04   0.00   0.03    -0.01  -0.07  -0.06    -0.00   0.01   0.01
    20   1     0.11   0.20   0.10     0.50   0.58   0.17    -0.02  -0.02  -0.00
    21   6    -0.02  -0.03  -0.02     0.04  -0.01  -0.04    -0.00  -0.00   0.00
    22   1     0.03   0.01  -0.00     0.10   0.03  -0.01    -0.00   0.00   0.00
    23   1    -0.09   0.01   0.03    -0.15   0.04   0.07     0.01  -0.00  -0.00
    24   1    -0.06  -0.01   0.06    -0.09   0.01   0.12     0.01  -0.00  -0.01
    25   6     0.01  -0.00  -0.01     0.03   0.04   0.01    -0.00  -0.00  -0.00
    26   1    -0.02   0.03   0.04    -0.05   0.14   0.14     0.00  -0.01  -0.01
    27   1    -0.02   0.02   0.04    -0.04   0.11   0.14     0.00  -0.01  -0.01
    28   1     0.01  -0.01  -0.01     0.06   0.08   0.05    -0.00  -0.01  -0.00
    29   1    -0.25   0.39   0.66     0.09   0.05  -0.08    -0.02   0.02   0.03
                     52                     53                     54
                      A                      A                      A
 Frequencies --   1366.5882              1420.4587              1423.8906
 Red. masses --      3.9703                 1.2524                 1.3583
 Frc consts  --      4.3687                 1.4889                 1.6226
 IR Inten    --     24.6619                 1.0331                 3.4910
  Atom  AN      X      Y      Z        X      Y      Z        X      Y      Z
     1   6    -0.07   0.09   0.15     0.01   0.01   0.01    -0.02  -0.01   0.01
     2   6     0.17   0.01  -0.13    -0.01  -0.00   0.00     0.04   0.03   0.00
     3   6    -0.01  -0.00  -0.00     0.00   0.00   0.00    -0.01  -0.00  -0.01
     4   6    -0.11  -0.15  -0.06    -0.00   0.00   0.00    -0.01   0.01   0.02
     5   6     0.00   0.00   0.00    -0.00  -0.00  -0.00     0.00   0.00   0.00
     6   1     0.00   0.01   0.00    -0.00  -0.00  -0.00     0.00   0.01   0.00
     7   6    -0.00  -0.00  -0.00     0.00   0.00   0.00    -0.00  -0.00  -0.00
     8   1     0.01   0.00   0.01    -0.00   0.00  -0.00     0.01   0.00   0.01
     9  16     0.00   0.00  -0.00     0.00   0.00   0.00    -0.00   0.00  -0.00
    10   7     0.01   0.00   0.00    -0.00  -0.00  -0.00     0.01   0.00   0.01
    11   8     0.04   0.03  -0.01     0.00  -0.00  -0.00     0.00  -0.00  -0.00
    12   1    -0.47  -0.05   0.37     0.00  -0.00  -0.00    -0.01   0.00  -0.00
    13   6    -0.03   0.03   0.05    -0.00  -0.04  -0.04    -0.03  -0.11  -0.08
    14   1     0.01  -0.15  -0.18    -0.04   0.14   0.15    -0.12   0.33   0.34
    15   1     0.05   0.05  -0.11     0.09   0.09   0.19     0.27   0.25   0.40
    16   1     0.09  -0.04   0.02     0.01   0.22   0.05     0.09   0.51   0.12
    17   6     0.24   0.05  -0.13     0.00  -0.01  -0.02     0.03   0.01  -0.01
    18   6    -0.08   0.10   0.15     0.02   0.01   0.00    -0.04  -0.04  -0.01
    19   6    -0.11  -0.11  -0.01    -0.01  -0.01  -0.00     0.00   0.01   0.00
    20   1    -0.16  -0.17  -0.03     0.01   0.02   0.01    -0.07  -0.09  -0.03
    21   6     0.01  -0.02  -0.03    -0.09  -0.07   0.00     0.04   0.04   0.00
    22   1     0.12   0.07   0.02     0.25   0.31   0.07    -0.07  -0.09  -0.02
    23   1    -0.06   0.10   0.02     0.25   0.36  -0.19    -0.06  -0.16   0.06
    24   1     0.00   0.03   0.14     0.47   0.09   0.12    -0.16  -0.04  -0.09
    25   6    -0.06  -0.02   0.02     0.02   0.05   0.04    -0.02  -0.02  -0.01
    26   1     0.19  -0.09  -0.02    -0.10  -0.09  -0.22     0.10   0.02   0.09
    27   1     0.11   0.08  -0.18     0.02  -0.26  -0.08     0.02   0.14  -0.01
    28   1     0.04   0.15   0.09    -0.14  -0.15  -0.10     0.05   0.07   0.05
    29   1     0.03  -0.15  -0.16     0.01  -0.00  -0.02    -0.02  -0.02   0.01
                     55                     56                     57
                      A                      A                      A
 Frequencies --   1432.2042              1460.9788              1476.6603
 Red. masses --      1.2514                 2.2044                 5.9991
 Frc consts  --      1.5124                 2.7722                 7.7073
 IR Inten    --      4.1191                18.6646               112.6604
  Atom  AN      X      Y      Z        X      Y      Z        X      Y      Z
     1   6     0.01  -0.01  -0.01    -0.01  -0.06  -0.06    -0.01   0.03  -0.00
     2   6    -0.03  -0.01   0.01     0.09   0.05  -0.02     0.00   0.01   0.01
     3   6     0.01   0.00   0.01    -0.01  -0.00  -0.00    -0.29  -0.03  -0.20
     4   6     0.02  -0.00  -0.02    -0.09   0.10   0.16    -0.02  -0.01   0.01
     5   6    -0.00  -0.01  -0.00     0.00   0.01   0.00     0.14   0.31   0.09
     6   1    -0.00  -0.00  -0.00     0.00  -0.01   0.00     0.20  -0.22   0.15
     7   6     0.00   0.00   0.00    -0.00  -0.01  -0.00    -0.17  -0.25  -0.11
     8   1    -0.01   0.00  -0.01     0.01  -0.00   0.01     0.35  -0.08   0.24
     9  16     0.00   0.00   0.00    -0.00  -0.00  -0.00    -0.00  -0.00  -0.00
    10   7    -0.01   0.00  -0.01     0.01  -0.00   0.01     0.24  -0.01   0.17
    11   8    -0.00   0.00   0.00     0.02  -0.03  -0.04     0.01   0.00  -0.01
    12   1     0.01   0.00  -0.00     0.23   0.00  -0.21    -0.03  -0.00   0.02
    13   6     0.01   0.00  -0.00    -0.05   0.00   0.04     0.01   0.00   0.00
    14   1     0.01  -0.00   0.00    -0.05   0.01  -0.02    -0.01   0.01  -0.09
    15   1    -0.03  -0.02   0.03     0.13   0.05  -0.42     0.00   0.00   0.00
    16   1    -0.04   0.01  -0.00     0.29  -0.31  -0.04    -0.09  -0.04  -0.02
    17   6    -0.01   0.01   0.01     0.06  -0.02  -0.07    -0.04  -0.04  -0.01
    18   6     0.01   0.01   0.00    -0.09  -0.10  -0.04     0.01   0.00  -0.00
    19   6     0.01   0.00  -0.00     0.00   0.06   0.05     0.04   0.03  -0.00
    20   1    -0.01  -0.02  -0.01    -0.17  -0.15  -0.02    -0.06  -0.10  -0.07
    21   6    -0.05  -0.04   0.00    -0.01   0.01   0.02    -0.00  -0.02  -0.01
    22   1     0.14   0.17   0.03     0.16   0.21   0.04    -0.06  -0.04  -0.03
    23   1     0.15   0.23  -0.12     0.20  -0.06  -0.10    -0.03   0.21   0.00
    24   1     0.29   0.06   0.08     0.16  -0.01  -0.19     0.10   0.06   0.16
    25   6    -0.03  -0.09  -0.07    -0.03   0.01   0.03     0.02  -0.00  -0.01
    26   1     0.19   0.19   0.45     0.22  -0.05   0.03    -0.17   0.06   0.02
    27   1    -0.03   0.52   0.16     0.12   0.13  -0.16    -0.12  -0.05   0.16
    28   1     0.24   0.28   0.18    -0.06  -0.03  -0.01     0.11   0.12   0.08
    29   1     0.00  -0.00  -0.02    -0.10   0.12   0.22     0.08  -0.14   0.01
                     58                     59                     60
                      A                      A                      A
 Frequencies --   1492.6237              1496.4972              1499.4539
 Red. masses --      1.0601                 1.1339                 1.0620
 Frc consts  --      1.3916                 1.4961                 1.4069
 IR Inten    --      0.4548                11.6282                 9.1457
  Atom  AN      X      Y      Z        X      Y      Z        X      Y      Z
     1   6    -0.00  -0.01  -0.01    -0.02  -0.01   0.01    -0.01  -0.00   0.01
     2   6    -0.01  -0.00   0.00     0.02  -0.00  -0.01     0.00   0.01  -0.02
     3   6     0.00  -0.00   0.00     0.02  -0.00   0.01     0.00  -0.00   0.00
     4   6     0.01   0.01   0.00    -0.01   0.01   0.01     0.00   0.01   0.01
     5   6    -0.00  -0.00  -0.00    -0.01  -0.03  -0.01    -0.00  -0.00  -0.00
     6   1    -0.00   0.00  -0.00    -0.02   0.03  -0.01    -0.00   0.01  -0.00
     7   6     0.00   0.00   0.00     0.02   0.02   0.01     0.00   0.00   0.00
     8   1    -0.00   0.00  -0.00    -0.03   0.01  -0.02    -0.00   0.00  -0.00
     9  16     0.00   0.00   0.00     0.00  -0.00  -0.00     0.00   0.00  -0.00
    10   7    -0.00   0.00  -0.00    -0.01   0.00  -0.01    -0.00   0.00  -0.00
    11   8    -0.00  -0.00   0.00     0.00   0.00  -0.00    -0.00  -0.00   0.00
    12   1     0.02   0.00  -0.02    -0.01  -0.00   0.02    -0.00   0.02  -0.04
    13   6    -0.00   0.00  -0.00    -0.02  -0.02   0.02    -0.03   0.03  -0.03
    14   1     0.02  -0.03   0.03    -0.13   0.25  -0.06     0.22  -0.39   0.49
    15   1    -0.03  -0.02   0.01     0.26   0.17  -0.19    -0.34  -0.26  -0.04
    16   1     0.02   0.02   0.00     0.06  -0.18  -0.03     0.47   0.20   0.07
    17   6     0.01  -0.02  -0.00    -0.00  -0.02  -0.02     0.00  -0.01  -0.02
    18   6    -0.02  -0.00  -0.00    -0.01  -0.02  -0.01    -0.01  -0.01   0.00
    19   6     0.01   0.02   0.01     0.04   0.04   0.01     0.02   0.02   0.01
    20   1    -0.04  -0.04  -0.02    -0.09  -0.14  -0.05    -0.05  -0.07  -0.03
    21   6     0.00   0.01  -0.03     0.03  -0.01  -0.02     0.01  -0.00  -0.01
    22   1     0.09  -0.30   0.23    -0.23  -0.18  -0.12    -0.09  -0.05  -0.06
    23   1     0.16   0.09  -0.11    -0.16   0.37   0.08    -0.07   0.14   0.04
    24   1    -0.16   0.07   0.31     0.10   0.10   0.32     0.04   0.04   0.11
    25   6     0.01  -0.03   0.03     0.02   0.00  -0.02     0.00   0.01  -0.00
    26   1    -0.22   0.19   0.28    -0.29   0.03  -0.07    -0.05  -0.02  -0.05
    27   1     0.22  -0.10  -0.32    -0.20  -0.17   0.25    -0.07  -0.03   0.09
    28   1    -0.23   0.38  -0.37     0.18   0.16   0.16     0.07   0.01   0.09
    29   1    -0.01  -0.00   0.00    -0.01  -0.05  -0.04     0.00  -0.03  -0.02
                     61                     62                     63
                      A                      A                      A
 Frequencies --   1506.2466              1516.0093              1518.6116
 Red. masses --      1.2006                 1.0966                 1.1205
 Frc consts  --      1.6048                 1.4849                 1.5225
 IR Inten    --      5.1558                16.6821                16.3752
  Atom  AN      X      Y      Z        X      Y      Z        X      Y      Z
     1   6     0.00  -0.03  -0.03    -0.00  -0.02  -0.02    -0.01  -0.02  -0.01
     2   6    -0.00  -0.00   0.01     0.03   0.02  -0.01     0.04   0.01  -0.01
     3   6     0.00  -0.00   0.00     0.00  -0.00   0.00    -0.00  -0.00   0.00
     4   6     0.02   0.03   0.01    -0.02   0.01   0.02    -0.02   0.02   0.03
     5   6    -0.00  -0.00  -0.00    -0.00  -0.01  -0.00    -0.01  -0.02  -0.00
     6   1    -0.00   0.00  -0.00    -0.01   0.02  -0.01    -0.01   0.03  -0.01
     7   6     0.00   0.00   0.00     0.00   0.01   0.00     0.01   0.01   0.00
     8   1    -0.00   0.00  -0.00    -0.01   0.01  -0.01    -0.01   0.01  -0.01
     9  16     0.00   0.00   0.00    -0.00  -0.00   0.00    -0.00  -0.00   0.00
    10   7    -0.00   0.00  -0.00     0.00   0.00   0.00     0.00   0.00   0.00
    11   8    -0.01  -0.01   0.00     0.00  -0.00  -0.01     0.00  -0.01  -0.01
    12   1     0.08   0.00  -0.06     0.03  -0.00  -0.03     0.06  -0.00  -0.05
    13   6     0.03   0.01  -0.00     0.02   0.00  -0.00     0.02   0.01  -0.00
    14   1     0.03  -0.13  -0.23     0.05  -0.16  -0.16     0.05  -0.16  -0.19
    15   1    -0.14  -0.08   0.27    -0.14  -0.08   0.22    -0.15  -0.08   0.24
    16   1    -0.35   0.13   0.01    -0.24   0.13   0.02    -0.27   0.13   0.02
    17   6     0.02  -0.02  -0.05     0.03   0.00  -0.01     0.03  -0.00  -0.03
    18   6    -0.05  -0.02   0.02    -0.01  -0.02   0.01    -0.03  -0.00   0.00
    19   6     0.01   0.04   0.03    -0.01   0.01   0.01     0.00   0.02   0.02
    20   1    -0.06  -0.06  -0.01    -0.04  -0.03   0.00    -0.07  -0.08  -0.02
    21   6     0.04  -0.01  -0.03     0.02  -0.02   0.03    -0.02   0.02  -0.01
    22   1    -0.18  -0.19  -0.09    -0.17   0.32  -0.33     0.26  -0.11   0.30
    23   1    -0.16   0.33   0.08    -0.25   0.01   0.16     0.29  -0.17  -0.18
    24   1     0.05   0.10   0.33     0.24  -0.05  -0.29    -0.18  -0.01   0.05
    25   6    -0.03   0.03   0.02     0.02  -0.02   0.00     0.01   0.01  -0.02
    26   1     0.38  -0.12  -0.07    -0.33   0.12   0.12    -0.22  -0.03  -0.15
    27   1     0.12   0.19  -0.12     0.02  -0.18  -0.06    -0.25  -0.15   0.30
    28   1    -0.07  -0.27   0.03    -0.02   0.34  -0.13     0.23   0.08   0.25
    29   1    -0.04   0.05   0.08    -0.03   0.05   0.08    -0.03   0.03   0.06
                     64                     65                     66
                      A                      A                      A
 Frequencies --   1526.7788              1557.1431              1589.2237
 Red. masses --      2.7959                 5.7457                 5.0342
 Frc consts  --      3.8399                 8.2082                 7.4913
 IR Inten    --     57.1039                64.3408                31.1414
  Atom  AN      X      Y      Z        X      Y      Z        X      Y      Z
     1   6    -0.06   0.07   0.12     0.01  -0.03  -0.01    -0.12   0.13   0.20
     2   6    -0.08  -0.14  -0.09    -0.03  -0.02   0.00     0.22  -0.02  -0.20
     3   6    -0.00  -0.01  -0.00     0.28   0.06   0.19     0.06  -0.00   0.05
     4   6     0.14   0.10  -0.01     0.05   0.03  -0.01    -0.15   0.03   0.15
     5   6    -0.01  -0.01  -0.00     0.11   0.30   0.06     0.01   0.03   0.00
     6   1    -0.01   0.03  -0.01     0.15  -0.64   0.14     0.01  -0.07   0.01
     7   6     0.01   0.01   0.00    -0.12  -0.23  -0.08    -0.01  -0.02  -0.01
     8   1    -0.01   0.01  -0.01     0.13  -0.18   0.10     0.00  -0.02   0.00
     9  16     0.00  -0.00   0.00     0.00   0.01   0.00     0.00   0.00   0.00
    10   7     0.00   0.00   0.00    -0.25  -0.06  -0.17    -0.05  -0.01  -0.03
    11   8    -0.04  -0.02   0.01    -0.01  -0.00   0.01     0.02  -0.01  -0.02
    12   1     0.19   0.01  -0.15     0.06   0.00  -0.04     0.02   0.00  -0.03
    13   6     0.02   0.03   0.02     0.00   0.00   0.00    -0.00   0.02   0.02
    14   1    -0.01   0.10   0.01    -0.01   0.04   0.01     0.05  -0.24  -0.24
    15   1     0.03   0.04   0.01     0.02   0.01   0.00    -0.12  -0.04   0.23
    16   1    -0.04  -0.02   0.00    -0.01  -0.00  -0.00    -0.21   0.18   0.06
    17   6    -0.04  -0.13  -0.10     0.07   0.02  -0.03    -0.20   0.01   0.15
    18   6    -0.09   0.03   0.10    -0.05  -0.01   0.03     0.13  -0.10  -0.19
    19   6     0.12   0.09  -0.00    -0.03   0.00   0.02     0.09  -0.03  -0.08
    20   1    -0.23  -0.39  -0.19    -0.03  -0.01   0.03     0.08  -0.07  -0.10
    21   6     0.01  -0.00  -0.00     0.01   0.00  -0.00    -0.02   0.01   0.02
    22   1     0.17   0.26  -0.03    -0.00  -0.00  -0.01    -0.12  -0.13   0.02
    23   1    -0.03  -0.22   0.02    -0.03  -0.01   0.02     0.08   0.14  -0.04
    24   1    -0.02  -0.08  -0.25    -0.02  -0.00   0.00     0.09   0.05   0.10
    25   6     0.00   0.03   0.03    -0.00  -0.00  -0.00     0.02  -0.00  -0.01
    26   1     0.04   0.03   0.05    -0.12  -0.01  -0.06     0.14   0.05   0.11
    27   1     0.05   0.04  -0.03    -0.07  -0.11   0.06     0.07   0.14  -0.04
    28   1    -0.03   0.03  -0.01     0.07   0.09   0.06    -0.10  -0.17  -0.12
    29   1     0.10  -0.33  -0.41    -0.06   0.10  -0.03     0.07  -0.28  -0.25
                     67                     68                     69
                      A                      A                      A
 Frequencies --   1639.3556              3009.9920              3032.4569
 Red. masses --      5.9824                 1.0417                 1.0433
 Frc consts  --      9.4727                 5.5608                 5.6528
 IR Inten    --      0.8580                27.2956                19.2826
  Atom  AN      X      Y      Z        X      Y      Z        X      Y      Z
     1   6    -0.04  -0.12  -0.12     0.00   0.00   0.00     0.00   0.00  -0.00
     2   6     0.13   0.15   0.06    -0.00  -0.00  -0.00    -0.00  -0.00  -0.00
     3   6     0.06  -0.01   0.04     0.00  -0.00   0.00    -0.00   0.00  -0.00
     4   6    -0.18  -0.25  -0.11     0.00   0.00  -0.00     0.00   0.00   0.00
     5   6     0.00   0.02   0.00    -0.00   0.00  -0.00     0.00   0.00   0.00
     6   1     0.00  -0.04   0.00     0.00   0.00   0.00    -0.00  -0.00  -0.00
     7   6    -0.01  -0.01  -0.00    -0.00   0.00   0.00     0.00  -0.00   0.00
     8   1    -0.01  -0.01  -0.00    -0.00   0.00  -0.00     0.00  -0.00   0.00
     9  16    -0.00   0.00  -0.00     0.00   0.00   0.00     0.00  -0.00   0.00
    10   7    -0.04  -0.00  -0.03    -0.00   0.00  -0.00     0.00  -0.00   0.00
    11   8     0.03   0.03  -0.00    -0.00  -0.00   0.00     0.00   0.00  -0.00
    12   1    -0.29  -0.03   0.24    -0.00   0.01   0.01     0.00  -0.00  -0.00
    13   6    -0.02  -0.02  -0.01     0.02  -0.04  -0.03    -0.00   0.00   0.00
    14   1    -0.00  -0.05  -0.01     0.27   0.09  -0.05    -0.00  -0.00   0.00
    15   1     0.01   0.01  -0.01    -0.47   0.56  -0.12     0.00  -0.00   0.00
    16   1     0.05   0.03   0.01    -0.03  -0.18   0.57     0.00   0.00  -0.00
    17   6    -0.21  -0.20  -0.04     0.00   0.00   0.00     0.00  -0.00  -0.00
    18   6     0.10   0.19   0.11    -0.00  -0.00   0.00    -0.00  -0.00  -0.00
    19   6     0.21   0.25   0.08     0.00  -0.00  -0.00    -0.00  -0.00   0.00
    20   1    -0.23  -0.33  -0.15    -0.00  -0.00   0.00    -0.00  -0.00  -0.00
    21   6    -0.02  -0.02  -0.01    -0.00  -0.00  -0.00    -0.02  -0.05  -0.01
    22   1     0.14   0.14   0.03     0.00  -0.00  -0.00     0.16  -0.12  -0.19
    23   1    -0.02  -0.16  -0.00     0.00  -0.00   0.00     0.27  -0.00   0.47
    24   1    -0.07  -0.06  -0.12    -0.00   0.01  -0.00    -0.15   0.71  -0.21
    25   6     0.02   0.03   0.02    -0.00  -0.00  -0.00     0.01   0.01   0.00
    26   1     0.14   0.04   0.07     0.00   0.00  -0.00    -0.03  -0.12   0.08
    27   1     0.07   0.13  -0.04     0.00  -0.00   0.00    -0.12   0.03  -0.08
    28   1    -0.09  -0.14  -0.07    -0.00   0.00   0.00     0.07  -0.01  -0.05
    29   1    -0.09  -0.01   0.19    -0.01  -0.00  -0.00     0.00   0.00   0.00
                     70                     71                     72
                      A                      A                      A
 Frequencies --   3035.3231              3060.9493              3081.8324
 Red. masses --      1.0380                 1.1005                 1.0982
 Frc consts  --      5.6345                 6.0750                 6.1453
 IR Inten    --     43.0060                21.5459                18.6578
  Atom  AN      X      Y      Z        X      Y      Z        X      Y      Z
     1   6    -0.00  -0.00  -0.00    -0.00   0.00  -0.00     0.00   0.00   0.00
     2   6    -0.00   0.00   0.00     0.00   0.00   0.00    -0.00   0.00  -0.00
     3   6    -0.00   0.00  -0.00     0.00   0.00  -0.00    -0.00   0.00  -0.00
     4   6     0.00   0.00   0.00     0.00  -0.00  -0.00    -0.00   0.00  -0.00
     5   6     0.00  -0.00   0.00    -0.00  -0.00   0.00     0.00  -0.00   0.00
     6   1    -0.00  -0.00  -0.00    -0.00  -0.00   0.00    -0.00  -0.00  -0.00
     7   6     0.00  -0.00   0.00     0.00   0.00  -0.00    -0.00  -0.00  -0.00
     8   1     0.00  -0.00   0.00     0.00  -0.00   0.00     0.00  -0.00   0.00
     9  16     0.00  -0.00   0.00    -0.00  -0.00  -0.00     0.00   0.00   0.00
    10   7     0.00   0.00   0.00    -0.00  -0.00  -0.00     0.00   0.00   0.00
    11   8     0.00   0.00  -0.00     0.00   0.00   0.00     0.00   0.00   0.00
    12   1     0.00  -0.00  -0.00    -0.00   0.00  -0.00    -0.00   0.00  -0.00
    13   6    -0.00   0.00   0.00    -0.04   0.05  -0.07    -0.00   0.00  -0.00
    14   1    -0.00  -0.00   0.00     0.07   0.04  -0.03     0.00   0.00  -0.00
    15   1     0.00  -0.01   0.00     0.41  -0.48   0.08     0.00  -0.00   0.00
    16   1     0.00   0.00  -0.00    -0.06  -0.21   0.73    -0.00  -0.00   0.00
    17   6     0.00   0.00  -0.00     0.00   0.00   0.00     0.00  -0.00  -0.00
    18   6    -0.00  -0.00   0.00    -0.00   0.00  -0.00     0.00   0.00  -0.00
    19   6     0.00   0.00   0.00     0.00   0.00   0.00    -0.00   0.00   0.00
    20   1     0.01  -0.00  -0.01    -0.00  -0.00   0.00     0.00  -0.00  -0.00
    21   6    -0.01  -0.01  -0.00     0.00  -0.00   0.00    -0.05   0.05  -0.06
    22   1     0.04  -0.03  -0.04    -0.00   0.00   0.00     0.04  -0.02  -0.08
    23   1     0.06  -0.00   0.10    -0.00  -0.00  -0.00     0.39   0.03   0.69
    24   1    -0.03   0.17  -0.05    -0.00   0.00  -0.00     0.10  -0.56   0.14
    25   6    -0.02  -0.04  -0.02     0.00  -0.00   0.00    -0.00   0.00  -0.01
    26   1     0.10   0.51  -0.32     0.00   0.00  -0.00    -0.01  -0.05   0.03
    27   1     0.51  -0.13   0.35    -0.00   0.00  -0.00     0.05  -0.01   0.03
    28   1    -0.32   0.06   0.25     0.00  -0.00  -0.00    -0.01   0.00   0.00
    29   1     0.00   0.00  -0.00    -0.00  -0.00  -0.00    -0.00  -0.00   0.00
                     73                     74                     75
                      A                      A                      A
 Frequencies --   3089.4752              3125.5087              3127.7385
 Red. masses --      1.1004                 1.0961                 1.1010
 Frc consts  --      6.1885                 6.3086                 6.3459
 IR Inten    --     15.0967                 7.7611                17.8907
  Atom  AN      X      Y      Z        X      Y      Z        X      Y      Z
     1   6    -0.00   0.00   0.00     0.00   0.00   0.00    -0.00  -0.00  -0.00
     2   6    -0.00  -0.00  -0.00    -0.00   0.00   0.00     0.00   0.00   0.00
     3   6     0.00   0.00   0.00    -0.00  -0.00  -0.00     0.00  -0.00   0.00
     4   6     0.00  -0.00   0.00    -0.00   0.00   0.00    -0.00  -0.00  -0.00
     5   6    -0.00   0.00  -0.00     0.00  -0.00   0.00    -0.00   0.00  -0.00
     6   1     0.00   0.00   0.00     0.00   0.00   0.00    -0.00   0.00   0.00
     7   6     0.00  -0.00   0.00    -0.00  -0.00   0.00    -0.00  -0.00  -0.00
     8   1    -0.00   0.00  -0.00    -0.00   0.00  -0.00    -0.00   0.00  -0.00
     9  16    -0.00  -0.00  -0.00     0.00   0.00  -0.00    -0.00   0.00  -0.00
    10   7    -0.00  -0.00  -0.00     0.00   0.00   0.00    -0.00  -0.00  -0.00
    11   8     0.00   0.00  -0.00     0.00   0.00  -0.00     0.00   0.00  -0.00
    12   1     0.00  -0.00   0.00     0.00  -0.00  -0.00     0.00   0.00   0.00
    13   6     0.00  -0.00   0.00    -0.08  -0.02   0.03    -0.00  -0.00   0.00
    14   1    -0.00  -0.00   0.00     0.88   0.34  -0.14     0.02   0.01  -0.00
    15   1    -0.00   0.00  -0.00     0.09  -0.13   0.03     0.00  -0.00   0.00
    16   1     0.00   0.00  -0.00    -0.00   0.07  -0.23    -0.00   0.00  -0.01
    17   6     0.00  -0.00   0.00     0.00   0.00   0.00    -0.00  -0.00  -0.00
    18   6    -0.00   0.00  -0.00    -0.00   0.00   0.00    -0.00  -0.00  -0.00
    19   6     0.00  -0.00   0.00    -0.00  -0.00   0.00     0.00  -0.00  -0.00
    20   1     0.00  -0.00  -0.00     0.00  -0.00  -0.01    -0.02   0.01   0.03
    21   6    -0.00   0.00  -0.01     0.00  -0.00  -0.00    -0.00   0.00   0.00
    22   1     0.01  -0.00  -0.01    -0.00   0.00   0.00     0.01  -0.00  -0.01
    23   1     0.03   0.00   0.06     0.00  -0.00   0.00     0.01  -0.00   0.01
    24   1     0.01  -0.04   0.01    -0.00   0.00  -0.00     0.00  -0.00  -0.00
    25   6     0.04  -0.06   0.06     0.00   0.00  -0.00    -0.08  -0.00   0.05
    26   1     0.14   0.59  -0.36    -0.00  -0.01   0.00     0.04   0.26  -0.16
    27   1    -0.57   0.12  -0.38    -0.00   0.00  -0.00     0.20  -0.05   0.16
    28   1    -0.02  -0.01   0.04    -0.02   0.00   0.01     0.70  -0.14  -0.56
    29   1     0.00   0.00  -0.00    -0.04  -0.02  -0.00     0.01   0.00  -0.00
                     76                     77                     78
                      A                      A                      A
 Frequencies --   3167.0359              3176.8759              3198.7946
 Red. masses --      1.0965                 1.0884                 1.0930
 Frc consts  --      6.4799                 6.4718                 6.5895
 IR Inten    --      5.8346                 4.7496                13.1998
  Atom  AN      X      Y      Z        X      Y      Z        X      Y      Z
     1   6     0.00   0.00  -0.00    -0.07  -0.03   0.00     0.03   0.02   0.00
     2   6    -0.00  -0.00   0.00     0.00  -0.00  -0.00    -0.00   0.00   0.00
     3   6     0.00  -0.00   0.00     0.00  -0.00   0.00    -0.00   0.00  -0.00
     4   6     0.00   0.00  -0.00     0.00   0.00  -0.00    -0.00  -0.00   0.00
     5   6    -0.00  -0.00  -0.00     0.00   0.00   0.00     0.00   0.00   0.00
     6   1     0.00   0.00   0.00    -0.00  -0.00  -0.00    -0.00  -0.00  -0.00
     7   6     0.00   0.00   0.00    -0.00  -0.00  -0.00    -0.00   0.00  -0.00
     8   1    -0.00   0.00  -0.00    -0.00   0.00  -0.00     0.00  -0.00   0.00
     9  16    -0.00   0.00  -0.00    -0.00   0.00  -0.00     0.00  -0.00   0.00
    10   7    -0.00   0.00  -0.00    -0.00   0.00  -0.00     0.00   0.00   0.00
    11   8    -0.00  -0.00  -0.00    -0.00  -0.00   0.00     0.00  -0.00   0.00
    12   1    -0.00   0.00   0.00     0.00   0.00  -0.00    -0.00   0.00   0.00
    13   6     0.00   0.00  -0.00    -0.00  -0.00   0.00     0.00   0.00  -0.00
    14   1    -0.00  -0.00   0.00     0.04   0.02  -0.00    -0.01  -0.00   0.00
    15   1    -0.00   0.00  -0.00     0.00  -0.00   0.00     0.00  -0.00  -0.00
    16   1     0.00  -0.00   0.00     0.00   0.00  -0.01    -0.00  -0.00  -0.00
    17   6    -0.00  -0.00   0.00    -0.00  -0.00  -0.00    -0.00  -0.00  -0.00
    18   6    -0.00  -0.00  -0.00    -0.00   0.00   0.00    -0.00   0.00   0.00
    19   6    -0.00   0.00   0.00     0.02  -0.01  -0.02     0.05  -0.02  -0.06
    20   1     0.00  -0.00  -0.00    -0.24   0.08   0.27    -0.60   0.21   0.67
    21   6     0.04  -0.04  -0.07     0.00  -0.00  -0.00     0.00  -0.00  -0.00
    22   1    -0.56   0.40   0.67    -0.00   0.00   0.00    -0.00   0.00   0.00
    23   1     0.12  -0.00   0.19     0.00  -0.00   0.00     0.00   0.00   0.00
    24   1    -0.03   0.15  -0.06     0.00   0.00  -0.00    -0.00   0.00  -0.00
    25   6    -0.00  -0.00   0.00     0.00   0.00  -0.00     0.00  -0.00  -0.00
    26   1     0.00   0.01  -0.00    -0.00  -0.00   0.00    -0.00  -0.00   0.00
    27   1     0.00  -0.00   0.00    -0.00   0.00  -0.00    -0.00   0.00  -0.00
    28   1     0.01  -0.00  -0.00    -0.02   0.00   0.01    -0.02   0.01   0.02
    29   1    -0.00  -0.00   0.00     0.83   0.40  -0.02    -0.33  -0.16   0.01
                     79                     80                     81
                      A                      A                      A
 Frequencies --   3220.1966              3263.6980              3843.5892
 Red. masses --      1.0904                 1.0990                 1.0657
 Frc consts  --      6.6617                 6.8973                 9.2761
 IR Inten    --     12.9403                 2.6013                40.7523
  Atom  AN      X      Y      Z        X      Y      Z        X      Y      Z
     1   6     0.00   0.00  -0.00     0.00   0.00  -0.00     0.00  -0.00  -0.00
     2   6    -0.00   0.00   0.00    -0.00   0.00   0.00    -0.00   0.00   0.00
     3   6     0.00   0.00   0.00    -0.00   0.00  -0.00    -0.00   0.00  -0.00
     4   6    -0.00   0.00   0.00     0.00  -0.00  -0.00    -0.00  -0.00  -0.00
     5   6    -0.07  -0.01  -0.05     0.02   0.01   0.01    -0.00  -0.00  -0.00
     6   1     0.79   0.05   0.56    -0.19  -0.02  -0.14     0.00  -0.00   0.00
     7   6     0.01  -0.02   0.01     0.02  -0.08   0.02     0.00  -0.00   0.00
     8   1    -0.06   0.23  -0.06    -0.23   0.91  -0.22     0.00   0.00   0.00
     9  16     0.00  -0.00   0.00    -0.00   0.00  -0.00    -0.00  -0.00   0.00
    10   7    -0.00  -0.00  -0.00    -0.00   0.00  -0.00     0.00  -0.00   0.00
    11   8     0.00   0.00  -0.00    -0.00   0.00   0.00    -0.01  -0.05  -0.03
    12   1    -0.00  -0.00  -0.00     0.00  -0.00  -0.00     0.23   0.86   0.46
    13   6     0.00   0.00   0.00     0.00   0.00  -0.00    -0.00   0.00   0.00
    14   1    -0.00  -0.00   0.00    -0.00  -0.00   0.00     0.00  -0.00  -0.00
    15   1     0.00  -0.00   0.00     0.00  -0.00  -0.00     0.00  -0.01   0.00
    16   1    -0.00  -0.00  -0.00    -0.00  -0.00   0.00    -0.00   0.00  -0.00
    17   6    -0.00  -0.00  -0.00     0.00   0.00  -0.00     0.00  -0.00  -0.00
    18   6    -0.00  -0.00  -0.00    -0.00   0.00   0.00    -0.00   0.00   0.00
    19   6     0.00  -0.00  -0.00    -0.00  -0.00   0.00    -0.00   0.00   0.00
    20   1    -0.00   0.00   0.00    -0.00   0.00   0.00     0.00  -0.00  -0.00
    21   6    -0.00   0.00   0.00     0.00  -0.00  -0.00    -0.00   0.00   0.00
    22   1     0.00  -0.00  -0.00    -0.00   0.00   0.00     0.00   0.00  -0.00
    23   1     0.00   0.00   0.00    -0.00  -0.00  -0.00     0.00  -0.00  -0.00
    24   1     0.00   0.00  -0.00    -0.00  -0.00   0.00     0.00  -0.00  -0.00
    25   6    -0.00  -0.00  -0.00     0.00   0.00   0.00     0.00  -0.00  -0.00
    26   1     0.00   0.00  -0.00    -0.00  -0.00   0.00     0.00   0.00  -0.00
    27   1     0.00  -0.00   0.00    -0.00   0.00  -0.00     0.00   0.00   0.00
    28   1    -0.00   0.00   0.00     0.00   0.00  -0.00    -0.00  -0.00   0.00
    29   1    -0.00  -0.00  -0.00    -0.00  -0.00   0.00    -0.00   0.00   0.00

 -------------------
 - Thermochemistry -
 -------------------
 Temperature   298.150 Kelvin.  Pressure   1.00000 Atm.
 Atom     1 has atomic number  6 and mass  12.00000
 Atom     2 has atomic number  6 and mass  12.00000
 Atom     3 has atomic number  6 and mass  12.00000
 Atom     4 has atomic number  6 and mass  12.00000
 Atom     5 has atomic number  6 and mass  12.00000
 Atom     6 has atomic number  1 and mass   1.00783
 Atom     7 has atomic number  6 and mass  12.00000
 Atom     8 has atomic number  1 and mass   1.00783
 Atom     9 has atomic number 16 and mass  31.97207
 Atom    10 has atomic number  7 and mass  14.00307
 Atom    11 has atomic number  8 and mass  15.99491
 Atom    12 has atomic number  1 and mass   1.00783
 Atom    13 has atomic number  6 and mass  12.00000
 Atom    14 has atomic number  1 and mass   1.00783
 Atom    15 has atomic number  1 and mass   1.00783
 Atom    16 has atomic number  1 and mass   1.00783
 Atom    17 has atomic number  6 and mass  12.00000
 Atom    18 has atomic number  6 and mass  12.00000
 Atom    19 has atomic number  6 and mass  12.00000
 Atom    20 has atomic number  1 and mass   1.00783
 Atom    21 has atomic number  6 and mass  12.00000
 Atom    22 has atomic number  1 and mass   1.00783
 Atom    23 has atomic number  1 and mass   1.00783
 Atom    24 has atomic number  1 and mass   1.00783
 Atom    25 has atomic number  6 and mass  12.00000
 Atom    26 has atomic number  1 and mass   1.00783
 Atom    27 has atomic number  1 and mass   1.00783
 Atom    28 has atomic number  1 and mass   1.00783
 Atom    29 has atomic number  1 and mass   1.00783
 Molecular mass:   220.07961 amu.
 Principal axes and moments of inertia in atomic units:
                           1         2         3
     Eigenvalues --  2223.883874711.835065409.84213
           X            0.22036   0.08350   0.97184
           Y            0.90695   0.34917  -0.23565
           Z           -0.35901   0.93333   0.00121
 This molecule is an asymmetric top.
 Rotational symmetry number  1.
 Warning -- assumption of classical behavior for rotation
           may cause significant error
 Rotational temperatures (Kelvin)      0.03895     0.01838     0.01601
 Rotational constants (GHZ):           0.81153     0.38302     0.33360
    1 imaginary frequencies ignored.
 Zero-point vibrational energy     605685.7 (Joules/Mol)
                                  144.76236 (Kcal/Mol)
 Warning -- explicit consideration of  24 degrees of freedom as
           vibrations may cause significant error
 Vibrational temperatures:     27.39    42.78    73.87   122.68   145.87
          (Kelvin)            163.47   178.00   200.22   210.03   273.42
                              366.41   426.26   435.03   469.29   481.00
                              523.85   654.46   666.62   719.42   728.99
                              787.66   809.40   833.80   839.02   952.05
                              973.70  1032.06  1049.37  1067.85  1150.93
                             1193.65  1227.88  1272.93  1297.31  1351.60
                             1375.29  1476.70  1498.84  1501.26  1512.41
                             1529.30  1538.46  1601.94  1668.64  1690.37
                             1786.22  1807.60  1844.54  1867.07  1898.29
                             1966.22  2043.72  2048.66  2060.62  2102.02
                             2124.58  2147.55  2153.13  2157.38  2167.15
                             2181.20  2184.94  2196.69  2240.38  2286.54
                             2358.67  4330.71  4363.03  4367.15  4404.02
                             4434.07  4445.07  4496.91  4500.12  4556.66
                             4570.82  4602.35  4633.14  4695.73  5530.07
 
 Zero-point correction=                           0.230693 (Hartree/Particle)
 Thermal correction to Energy=                    0.246385
 Thermal correction to Enthalpy=                  0.247329
 Thermal correction to Gibbs Free Energy=         0.185092
 Sum of electronic and zero-point Energies=           -993.594205
 Sum of electronic and thermal Energies=              -993.578514
 Sum of electronic and thermal Enthalpies=            -993.577570
 Sum of electronic and thermal Free Energies=         -993.639807
 
                     E (Thermal)             CV                S
                      KCal/Mol        Cal/Mol-Kelvin    Cal/Mol-Kelvin
 Total                  154.609             57.351            130.989
 Electronic               0.000              0.000              1.377
 Translational            0.889              2.981             42.069
 Rotational               0.889              2.981             32.405
 Vibrational            152.831             51.390             55.137
 Vibration     1          0.593              1.986              6.732
 Vibration     2          0.594              1.984              5.847
 Vibration     3          0.596              1.977              4.765
 Vibration     4          0.601              1.959              3.766
 Vibration     5          0.604              1.948              3.427
 Vibration     6          0.607              1.938              3.206
 Vibration     7          0.610              1.929              3.042
 Vibration     8          0.615              1.914              2.815
 Vibration     9          0.617              1.907              2.724
 Vibration    10          0.633              1.854              2.227
 Vibration    11          0.665              1.755              1.698
 Vibration    12          0.690              1.681              1.438
 Vibration    13          0.694              1.669              1.404
 Vibration    14          0.710              1.623              1.279
 Vibration    15          0.716              1.607              1.239
 Vibration    16          0.738              1.546              1.105
 Vibration    17          0.813              1.350              0.781
 Vibration    18          0.821              1.331              0.756
 Vibration    19          0.855              1.250              0.658
 Vibration    20          0.862              1.235              0.642
 Vibration    21          0.903              1.145              0.549
 Vibration    22          0.918              1.112              0.519
 Vibration    23          0.936              1.076              0.486
 Vibration    24          0.940              1.068              0.480
                       Q            Log10(Q)             Ln(Q)
 Total Bot       0.730438D-85        -85.136417       -196.033844
 Total V=0       0.944348D+21         20.975132         48.297027
 Vib (Bot)       0.105594D-99        -99.976359       -230.204075
 Vib (Bot)    1  0.108829D+02          1.036745          2.387193
 Vib (Bot)    2  0.696310D+01          0.842803          1.940625
 Vib (Bot)    3  0.402564D+01          0.604835          1.392684
 Vib (Bot)    4  0.241329D+01          0.382610          0.880992
 Vib (Bot)    5  0.202364D+01          0.306133          0.704896
 Vib (Bot)    6  0.180121D+01          0.255564          0.588459
 Vib (Bot)    7  0.165040D+01          0.217590          0.501020
 Vib (Bot)    8  0.146152D+01          0.164806          0.379480
 Vib (Bot)    9  0.139064D+01          0.143215          0.329766
 Vib (Bot)   10  0.105315D+01          0.022491          0.051788
 Vib (Bot)   11  0.764667D+00         -0.116528         -0.268315
 Vib (Bot)   12  0.643261D+00         -0.191613         -0.441205
 Vib (Bot)   13  0.628132D+00         -0.201949         -0.465005
 Vib (Bot)   14  0.574179D+00         -0.240952         -0.554813
 Vib (Bot)   15  0.557409D+00         -0.253826         -0.584457
 Vib (Bot)   16  0.502036D+00         -0.299265         -0.689084
 Vib (Bot)   17  0.375507D+00         -0.425382         -0.979477
 Vib (Bot)   18  0.366093D+00         -0.436408         -1.004867
 Vib (Bot)   19  0.328687D+00         -0.483217         -1.112648
 Vib (Bot)   20  0.322452D+00         -0.491535         -1.131800
 Vib (Bot)   21  0.287362D+00         -0.541571         -1.247013
 Vib (Bot)   22  0.275584D+00         -0.559745         -1.288861
 Vib (Bot)   23  0.263072D+00         -0.579926         -1.335328
 Vib (Bot)   24  0.260483D+00         -0.584221         -1.345219
 Vib (V=0)       0.136518D+07          6.135190         14.126796
 Vib (V=0)    1  0.113944D+02          1.056691          2.433121
 Vib (V=0)    2  0.748103D+01          0.873961          2.012371
 Vib (V=0)    3  0.455657D+01          0.658638          1.516570
 Vib (V=0)    4  0.296454D+01          0.471958          1.086724
 Vib (V=0)    5  0.258449D+01          0.412375          0.949529
 Vib (V=0)    6  0.236932D+01          0.374624          0.862603
 Vib (V=0)    7  0.222448D+01          0.347229          0.799524
 Vib (V=0)    8  0.204469D+01          0.310626          0.715244
 Vib (V=0)    9  0.197780D+01          0.296182          0.681984
 Vib (V=0)   10  0.166582D+01          0.221627          0.510316
 Vib (V=0)   11  0.141363D+01          0.150335          0.346159
 Vib (V=0)   12  0.131473D+01          0.118837          0.273631
 Vib (V=0)   13  0.130284D+01          0.114891          0.264546
 Vib (V=0)   14  0.126137D+01          0.100842          0.232197
 Vib (V=0)   15  0.124880D+01          0.096494          0.222185
 Vib (V=0)   16  0.120855D+01          0.082264          0.189420
 Vib (V=0)   17  0.112530D+01          0.051270          0.118054
 Vib (V=0)   18  0.111970D+01          0.049100          0.113058
 Vib (V=0)   19  0.109836D+01          0.040745          0.093819
 Vib (V=0)   20  0.109496D+01          0.039398          0.090716
 Vib (V=0)   21  0.107669D+01          0.032093          0.073896
 Vib (V=0)   22  0.107092D+01          0.029756          0.068516
 Vib (V=0)   23  0.106498D+01          0.027343          0.062960
 Vib (V=0)   24  0.106378D+01          0.026853          0.061831
 Electronic      0.200000D+01          0.301030          0.693147
 Translational   0.128329D+09          8.108324         18.670105
 Rotational      0.269519D+07          6.430589         14.806978
 -------------------------------------------------------------------
 Center     Atomic                   Forces (Hartrees/Bohr)
 Number     Number              X              Y              Z
 -------------------------------------------------------------------
      1        6          -0.000000009   -0.000003409   -0.000000911
      2        6           0.000002644   -0.000000306   -0.000000936
      3        6          -0.000001066   -0.000000348   -0.000000086
      4        6          -0.000001143   -0.000001801   -0.000001104
      5        6           0.000000167   -0.000000032   -0.000000460
      6        1          -0.000000283    0.000000265    0.000000304
      7        6          -0.000000125    0.000000779   -0.000000633
      8        1           0.000000096    0.000000030    0.000000029
      9       16           0.000001932   -0.000000784    0.000001080
     10        7          -0.000000464    0.000000022    0.000001347
     11        8           0.000000569    0.000000808    0.000000609
     12        1           0.000000730    0.000000178    0.000000410
     13        6          -0.000000522    0.000000438   -0.000000984
     14        1           0.000000681   -0.000000404   -0.000000238
     15        1           0.000001646    0.000000566   -0.000001019
     16        1           0.000000363   -0.000000256   -0.000000139
     17        6          -0.000000621   -0.000000216    0.000000585
     18        6           0.000000431    0.000001240    0.000000093
     19        6           0.000000894    0.000000748    0.000001251
     20        1          -0.000000576   -0.000000093   -0.000000683
     21        6          -0.000000141    0.000000489    0.000000268
     22        1           0.000000406   -0.000000034    0.000001054
     23        1          -0.000000459    0.000000872    0.000000748
     24        1          -0.000000282    0.000000097   -0.000000219
     25        6          -0.000000775    0.000000212    0.000000210
     26        1          -0.000000398   -0.000000143    0.000000064
     27        1          -0.000001199   -0.000000225    0.000000607
     28        1          -0.000001106    0.000000145   -0.000000391
     29        1          -0.000001388    0.000001161   -0.000000855
 -------------------------------------------------------------------
 Cartesian Forces:  Max     0.000003409 RMS     0.000000848
 FormGI is forming the generalized inverse of G from B-inverse, IUseBI=4.

 GradGradGradGradGradGradGradGradGradGradGradGradGradGradGradGradGradGrad
 Berny optimization.
 Internal  Forces:  Max     0.000002531 RMS     0.000000663
 Search for a saddle point.
 Step number   1 out of a maximum of    2
 All quantities printed in internal units (Hartrees-Bohrs-Radians)
 Swapping is turned off.
 Second derivative matrix not updated -- analytic derivatives used.
 ITU=  0
     Eigenvalues ---   -0.01637   0.00052   0.00076   0.00114   0.00238
     Eigenvalues ---    0.00348   0.00381   0.01028   0.01283   0.01464
     Eigenvalues ---    0.01516   0.01544   0.01726   0.01841   0.01928
     Eigenvalues ---    0.02501   0.02729   0.03084   0.03594   0.03768
     Eigenvalues ---    0.04298   0.05163   0.05757   0.05825   0.05864
     Eigenvalues ---    0.05910   0.05989   0.06072   0.06508   0.07207
     Eigenvalues ---    0.09201   0.11139   0.11887   0.11962   0.12146
     Eigenvalues ---    0.12213   0.12488   0.14511   0.14547   0.14565
     Eigenvalues ---    0.14665   0.14737   0.15015   0.15832   0.16983
     Eigenvalues ---    0.18712   0.19234   0.19392   0.20196   0.20640
     Eigenvalues ---    0.21731   0.23615   0.25215   0.26592   0.30190
     Eigenvalues ---    0.31398   0.32323   0.32594   0.33017   0.33211
     Eigenvalues ---    0.33507   0.33736   0.33970   0.34609   0.34639
     Eigenvalues ---    0.35201   0.35685   0.36113   0.36597   0.37360
     Eigenvalues ---    0.37615   0.39025   0.40481   0.41236   0.44145
     Eigenvalues ---    0.45770   0.48519   0.48757   0.51210   0.53541
     Eigenvalues ---    0.58908
 Eigenvectors required to have negative eigenvalues:
                          R2        D18       D6        D17       D5
   1                    0.86982   0.18499  -0.17305   0.15886  -0.15660
                          D3        D13       A1        D4        D14
   1                    0.11957  -0.11930  -0.10510   0.10313  -0.09316
 Angle between quadratic step and forces=  68.71 degrees.
 Linear search not attempted -- option 19 set.
 Iteration  1 RMS(Cart)=  0.00060567 RMS(Int)=  0.00000025
 Iteration  2 RMS(Cart)=  0.00000027 RMS(Int)=  0.00000000
 Variable       Old X    -DE/DX   Delta X   Delta X   Delta X     New X
                                 (Linear)    (Quad)   (Total)
    R1        2.67766  -0.00000   0.00000  -0.00001  -0.00001   2.67765
    R2        4.24941  -0.00000   0.00000   0.00005   0.00005   4.24946
    R3        2.67003  -0.00000   0.00000  -0.00001  -0.00001   2.67002
    R4        2.05217  -0.00000   0.00000  -0.00000  -0.00000   2.05217
    R5        2.64104   0.00000   0.00000   0.00001   0.00001   2.64105
    R6        2.84734  -0.00000   0.00000   0.00000   0.00000   2.84734
    R7        3.34349  -0.00000   0.00000  -0.00000  -0.00000   3.34348
    R8        2.41595  -0.00000   0.00000  -0.00000  -0.00000   2.41595
    R9        2.59565   0.00000   0.00000  -0.00000  -0.00000   2.59565
   R10        2.66258  -0.00000   0.00000  -0.00000  -0.00000   2.66258
   R11        2.04833   0.00000   0.00000   0.00000   0.00000   2.04833
   R12        2.57513   0.00000   0.00000   0.00000   0.00000   2.57514
   R13        2.62531   0.00000   0.00000   0.00000   0.00000   2.62531
   R14        2.04327   0.00000   0.00000  -0.00000  -0.00000   2.04327
   R15        3.30657   0.00000   0.00000   0.00001   0.00001   3.30658
   R16        1.82270   0.00000   0.00000  -0.00000  -0.00000   1.82270
   R17        2.06447  -0.00000   0.00000   0.00000   0.00000   2.06447
   R18        2.07721   0.00000   0.00000  -0.00000  -0.00000   2.07721
   R19        2.07504   0.00000   0.00000  -0.00000  -0.00000   2.07504
   R20        2.67408  -0.00000   0.00000  -0.00000  -0.00000   2.67408
   R21        2.62048   0.00000   0.00000   0.00000   0.00000   2.62048
   R22        2.85090  -0.00000   0.00000  -0.00000  -0.00000   2.85090
   R23        2.84743  -0.00000   0.00000  -0.00000  -0.00000   2.84743
   R24        2.05069   0.00000   0.00000   0.00000   0.00000   2.05069
   R25        2.05845  -0.00000   0.00000  -0.00001  -0.00001   2.05845
   R26        2.07105  -0.00000   0.00000   0.00002   0.00002   2.07106
   R27        2.07380   0.00000   0.00000  -0.00001  -0.00001   2.07378
   R28        2.07124   0.00000   0.00000   0.00001   0.00001   2.07125
   R29        2.07195   0.00000   0.00000  -0.00001  -0.00001   2.07195
   R30        2.06495  -0.00000   0.00000  -0.00000  -0.00000   2.06495
    A1        1.69665  -0.00000   0.00000  -0.00003  -0.00003   1.69661
    A2        2.09704   0.00000   0.00000   0.00001   0.00001   2.09705
    A3        2.06418  -0.00000   0.00000  -0.00000  -0.00000   2.06417
    A4        1.71846   0.00000   0.00000   0.00006   0.00006   1.71852
    A5        1.57310  -0.00000   0.00000  -0.00009  -0.00009   1.57301
    A6        2.07767   0.00000   0.00000   0.00001   0.00001   2.07768
    A7        2.05529   0.00000   0.00000   0.00000   0.00000   2.05529
    A8        2.11317  -0.00000   0.00000  -0.00002  -0.00002   2.11316
    A9        2.11193   0.00000   0.00000   0.00001   0.00001   2.11194
   A10        2.12533  -0.00000   0.00000  -0.00002  -0.00002   2.12531
   A11        2.09532   0.00000   0.00000   0.00004   0.00004   2.09536
   A12        2.00405   0.00000   0.00000   0.00001   0.00001   2.00406
   A13        2.11462  -0.00000   0.00000  -0.00000  -0.00000   2.11461
   A14        2.13175  -0.00000   0.00000  -0.00001  -0.00001   2.13174
   A15        2.03667   0.00000   0.00000   0.00001   0.00001   2.03668
   A16        2.18132  -0.00000   0.00000  -0.00000  -0.00000   2.18132
   A17        2.08084  -0.00000   0.00000   0.00000   0.00000   2.08084
   A18        2.02102   0.00000   0.00000  -0.00000  -0.00000   2.02102
   A19        2.24102  -0.00000   0.00000  -0.00000  -0.00000   2.24102
   A20        1.91062  -0.00000   0.00000  -0.00000  -0.00000   1.91062
   A21        2.13151   0.00000   0.00000   0.00000   0.00000   2.13152
   A22        1.54190  -0.00000   0.00000  -0.00000  -0.00000   1.54190
   A23        1.94682  -0.00000   0.00000  -0.00000  -0.00000   1.94682
   A24        1.90993   0.00000   0.00000  -0.00000  -0.00000   1.90993
   A25        1.93736   0.00000   0.00000  -0.00000  -0.00000   1.93736
   A26        1.95300   0.00000   0.00000  -0.00001  -0.00001   1.95299
   A27        1.95379  -0.00000   0.00000   0.00001   0.00001   1.95380
   A28        1.85959  -0.00000   0.00000   0.00001   0.00001   1.85960
   A29        1.87064   0.00000   0.00000  -0.00002  -0.00002   1.87063
   A30        1.88481   0.00000   0.00000   0.00001   0.00001   1.88483
   A31        2.08936   0.00000   0.00000   0.00000   0.00000   2.08937
   A32        2.09320  -0.00000   0.00000  -0.00001  -0.00001   2.09319
   A33        2.10059   0.00000   0.00000   0.00001   0.00001   2.10060
   A34        2.07601   0.00000   0.00000   0.00000   0.00000   2.07601
   A35        2.10070   0.00000   0.00000   0.00002   0.00002   2.10072
   A36        2.10645  -0.00000   0.00000  -0.00003  -0.00003   2.10643
   A37        2.10567  -0.00000   0.00000  -0.00000  -0.00000   2.10567
   A38        2.07932   0.00000   0.00000   0.00000   0.00000   2.07932
   A39        2.09559   0.00000   0.00000   0.00000   0.00000   2.09559
   A40        1.94657   0.00000   0.00000   0.00002   0.00002   1.94659
   A41        1.93511  -0.00000   0.00000  -0.00003  -0.00003   1.93508
   A42        1.93946   0.00000   0.00000   0.00000   0.00000   1.93946
   A43        1.89146   0.00000   0.00000  -0.00003  -0.00003   1.89143
   A44        1.88573  -0.00000   0.00000   0.00004   0.00004   1.88577
   A45        1.86251  -0.00000   0.00000  -0.00001  -0.00001   1.86249
   A46        1.95203   0.00000   0.00000  -0.00001  -0.00001   1.95202
   A47        1.93744   0.00000   0.00000   0.00002   0.00002   1.93746
   A48        1.93975  -0.00000   0.00000   0.00000   0.00000   1.93976
   A49        1.86549  -0.00000   0.00000  -0.00002  -0.00002   1.86547
   A50        1.88621  -0.00000   0.00000  -0.00001  -0.00001   1.88620
   A51        1.87954   0.00000   0.00000   0.00002   0.00002   1.87956
    D1        1.65734   0.00000   0.00000   0.00010   0.00010   1.65744
    D2       -1.40484   0.00000   0.00000   0.00020   0.00020  -1.40464
    D3       -0.16097   0.00000   0.00000   0.00005   0.00005  -0.16093
    D4        3.06003   0.00000   0.00000   0.00015   0.00015   3.06018
    D5       -2.98432  -0.00000   0.00000  -0.00003  -0.00003  -2.98435
    D6        0.23668  -0.00000   0.00000   0.00008   0.00008   0.23676
    D7        1.30523   0.00000   0.00000   0.00079   0.00079   1.30602
    D8       -1.45696  -0.00000   0.00000   0.00069   0.00069  -1.45627
    D9       -2.84775   0.00000   0.00000   0.00080   0.00080  -2.84695
   D10        0.67325   0.00000   0.00000   0.00070   0.00070   0.67395
   D11       -0.76357   0.00000   0.00000   0.00080   0.00080  -0.76276
   D12        2.75743   0.00000   0.00000   0.00070   0.00070   2.75813
   D13        0.15665  -0.00000   0.00000  -0.00009  -0.00009   0.15656
   D14       -3.06239  -0.00000   0.00000  -0.00006  -0.00006  -3.06244
   D15       -1.64947   0.00000   0.00000  -0.00009  -0.00009  -1.64956
   D16        1.41468   0.00000   0.00000  -0.00006  -0.00006   1.41462
   D17        2.97756   0.00000   0.00000  -0.00002  -0.00002   2.97754
   D18       -0.24148   0.00000   0.00000   0.00001   0.00001  -0.24146
   D19       -3.08620   0.00000   0.00000   0.00007   0.00007  -3.08613
   D20        0.07463   0.00000   0.00000   0.00005   0.00005   0.07468
   D21       -0.02395  -0.00000   0.00000  -0.00003  -0.00003  -0.02399
   D22        3.13688  -0.00000   0.00000  -0.00005  -0.00005   3.13683
   D23       -0.19924  -0.00000   0.00000  -0.00057  -0.00057  -0.19982
   D24        1.87576  -0.00000   0.00000  -0.00057  -0.00057   1.87518
   D25       -2.28878  -0.00000   0.00000  -0.00056  -0.00056  -2.28934
   D26        3.02434  -0.00000   0.00000  -0.00047  -0.00047   3.02387
   D27       -1.18385  -0.00000   0.00000  -0.00047  -0.00047  -1.18431
   D28        0.93480  -0.00000   0.00000  -0.00045  -0.00045   0.93435
   D29       -2.80166  -0.00000   0.00000  -0.00011  -0.00011  -2.80176
   D30       -0.02106  -0.00000   0.00000  -0.00000  -0.00000  -0.02106
   D31        2.81517  -0.00000   0.00000   0.00009   0.00009   2.81526
   D32        0.02786   0.00000   0.00000   0.00000   0.00000   0.02786
   D33        0.17703  -0.00000   0.00000  -0.00012  -0.00012   0.17691
   D34       -2.98279  -0.00000   0.00000  -0.00011  -0.00011  -2.98290
   D35        0.01914  -0.00000   0.00000  -0.00012  -0.00012   0.01902
   D36       -3.12996  -0.00000   0.00000  -0.00002  -0.00002  -3.12998
   D37       -3.10403  -0.00000   0.00000  -0.00013  -0.00013  -3.10416
   D38        0.03006  -0.00000   0.00000  -0.00004  -0.00004   0.03002
   D39       -0.00535  -0.00000   0.00000   0.00000   0.00000  -0.00534
   D40       -3.13855  -0.00000   0.00000  -0.00000  -0.00000  -3.13855
   D41        3.13914   0.00000   0.00000   0.00001   0.00001   3.13915
   D42        0.00594   0.00000   0.00000   0.00000   0.00000   0.00594
   D43        3.12223  -0.00000   0.00000   0.00000   0.00000   3.12223
   D44       -0.02208  -0.00000   0.00000  -0.00000  -0.00000  -0.02208
   D45        0.00749   0.00000   0.00000   0.00000   0.00000   0.00749
   D46       -3.12634   0.00000   0.00000  -0.00000  -0.00000  -3.12634
   D47       -0.02765   0.00000   0.00000   0.00008   0.00008  -0.02757
   D48        3.12148  -0.00000   0.00000  -0.00002  -0.00002   3.12146
   D49        3.12170   0.00000   0.00000   0.00005   0.00005   3.12175
   D50       -0.01236   0.00000   0.00000  -0.00005  -0.00005  -0.01241
   D51       -0.05957   0.00000   0.00000   0.00002   0.00002  -0.05955
   D52       -3.12300   0.00000   0.00000  -0.00001  -0.00001  -3.12301
   D53        3.07423   0.00000   0.00000   0.00005   0.00005   3.07428
   D54        0.01080   0.00000   0.00000   0.00002   0.00002   0.01082
   D55       -0.96756  -0.00000   0.00000  -0.00067  -0.00067  -0.96823
   D56        1.11432  -0.00000   0.00000  -0.00069  -0.00069   1.11363
   D57       -3.07739  -0.00000   0.00000  -0.00065  -0.00065  -3.07805
   D58        2.18184  -0.00000   0.00000  -0.00070  -0.00070   2.18114
   D59       -2.01947  -0.00000   0.00000  -0.00072  -0.00072  -2.02018
   D60        0.07200  -0.00000   0.00000  -0.00068  -0.00068   0.07133
   D61        0.09987  -0.00000   0.00000  -0.00134  -0.00134   0.09854
   D62        2.20944  -0.00000   0.00000  -0.00138  -0.00138   2.20806
   D63       -2.00539  -0.00000   0.00000  -0.00141  -0.00141  -2.00680
   D64       -3.04936  -0.00000   0.00000  -0.00124  -0.00124  -3.05060
   D65       -0.93979  -0.00000   0.00000  -0.00128  -0.00128  -0.94107
   D66        1.12856  -0.00000   0.00000  -0.00131  -0.00131   1.12725
         Item               Value     Threshold  Converged?
 Maximum Force            0.000003     0.000450     YES
 RMS     Force            0.000001     0.000300     YES
 Maximum Displacement     0.002268     0.001800     NO 
 RMS     Displacement     0.000606     0.001200     YES
 Predicted change in Energy=-6.292915D-09
 Optimization completed on the basis of negligible forces.
    -- Stationary point found.
                           ----------------------------
                           !   Optimized Parameters   !
                           ! (Angstroms and Degrees)  !
 --------------------------                            --------------------------
 ! Name  Definition              Value          Derivative Info.                !
 --------------------------------------------------------------------------------
 ! R1    R(1,2)                  1.417          -DE/DX =    0.0                 !
 ! R2    R(1,3)                  2.2487         -DE/DX =    0.0                 !
 ! R3    R(1,19)                 1.4129         -DE/DX =    0.0                 !
 ! R4    R(1,29)                 1.086          -DE/DX =    0.0                 !
 ! R5    R(2,4)                  1.3976         -DE/DX =    0.0                 !
 ! R6    R(2,13)                 1.5067         -DE/DX =    0.0                 !
 ! R7    R(3,9)                  1.7693         -DE/DX =    0.0                 !
 ! R8    R(3,10)                 1.2785         -DE/DX =    0.0                 !
 ! R9    R(4,11)                 1.3736         -DE/DX =    0.0                 !
 ! R10   R(4,18)                 1.409          -DE/DX =    0.0                 !
 ! R11   R(5,6)                  1.0839         -DE/DX =    0.0                 !
 ! R12   R(5,7)                  1.3627         -DE/DX =    0.0                 !
 ! R13   R(5,10)                 1.3893         -DE/DX =    0.0                 !
 ! R14   R(7,8)                  1.0813         -DE/DX =    0.0                 !
 ! R15   R(7,9)                  1.7498         -DE/DX =    0.0                 !
 ! R16   R(11,12)                0.9645         -DE/DX =    0.0                 !
 ! R17   R(13,14)                1.0925         -DE/DX =    0.0                 !
 ! R18   R(13,15)                1.0992         -DE/DX =    0.0                 !
 ! R19   R(13,16)                1.0981         -DE/DX =    0.0                 !
 ! R20   R(17,18)                1.4151         -DE/DX =    0.0                 !
 ! R21   R(17,19)                1.3867         -DE/DX =    0.0                 !
 ! R22   R(17,25)                1.5086         -DE/DX =    0.0                 !
 ! R23   R(18,21)                1.5068         -DE/DX =    0.0                 !
 ! R24   R(19,20)                1.0852         -DE/DX =    0.0                 !
 ! R25   R(21,22)                1.0893         -DE/DX =    0.0                 !
 ! R26   R(21,23)                1.0959         -DE/DX =    0.0                 !
 ! R27   R(21,24)                1.0974         -DE/DX =    0.0                 !
 ! R28   R(25,26)                1.0961         -DE/DX =    0.0                 !
 ! R29   R(25,27)                1.0964         -DE/DX =    0.0                 !
 ! R30   R(25,28)                1.0927         -DE/DX =    0.0                 !
 ! A1    A(2,1,3)               97.2108         -DE/DX =    0.0                 !
 ! A2    A(2,1,19)             120.1515         -DE/DX =    0.0                 !
 ! A3    A(2,1,29)             118.2686         -DE/DX =    0.0                 !
 ! A4    A(3,1,19)              98.4605         -DE/DX =    0.0                 !
 ! A5    A(3,1,29)              90.1318         -DE/DX =    0.0                 !
 ! A6    A(19,1,29)            119.0417         -DE/DX =    0.0                 !
 ! A7    A(1,2,4)              117.7593         -DE/DX =    0.0                 !
 ! A8    A(1,2,13)             121.076          -DE/DX =    0.0                 !
 ! A9    A(4,2,13)             121.0049         -DE/DX =    0.0                 !
 ! A10   A(1,3,9)              121.7725         -DE/DX =    0.0                 !
 ! A11   A(1,3,10)             120.053          -DE/DX =    0.0                 !
 ! A12   A(9,3,10)             114.8238         -DE/DX =    0.0                 !
 ! A13   A(2,4,11)             121.1585         -DE/DX =    0.0                 !
 ! A14   A(2,4,18)             122.1403         -DE/DX =    0.0                 !
 ! A15   A(11,4,18)            116.6926         -DE/DX =    0.0                 !
 ! A16   A(6,5,7)              124.9804         -DE/DX =    0.0                 !
 ! A17   A(6,5,10)             119.2235         -DE/DX =    0.0                 !
 ! A18   A(7,5,10)             115.7959         -DE/DX =    0.0                 !
 ! A19   A(5,7,8)              128.401          -DE/DX =    0.0                 !
 ! A20   A(5,7,9)              109.4705         -DE/DX =    0.0                 !
 ! A21   A(8,7,9)              122.1268         -DE/DX =    0.0                 !
 ! A22   A(3,9,7)               88.3443         -DE/DX =    0.0                 !
 ! A23   A(3,10,5)             111.5448         -DE/DX =    0.0                 !
 ! A24   A(4,11,12)            109.4312         -DE/DX =    0.0                 !
 ! A25   A(2,13,14)            111.0028         -DE/DX =    0.0                 !
 ! A26   A(2,13,15)            111.8987         -DE/DX =    0.0                 !
 ! A27   A(2,13,16)            111.944          -DE/DX =    0.0                 !
 ! A28   A(14,13,15)           106.5467         -DE/DX =    0.0                 !
 ! A29   A(14,13,16)           107.1799         -DE/DX =    0.0                 !
 ! A30   A(15,13,16)           107.9918         -DE/DX =    0.0                 !
 ! A31   A(18,17,19)           119.7117         -DE/DX =    0.0                 !
 ! A32   A(18,17,25)           119.9318         -DE/DX =    0.0                 !
 ! A33   A(19,17,25)           120.355          -DE/DX =    0.0                 !
 ! A34   A(4,18,17)            118.9466         -DE/DX =    0.0                 !
 ! A35   A(4,18,21)            120.3611         -DE/DX =    0.0                 !
 ! A36   A(17,18,21)           120.6909         -DE/DX =    0.0                 !
 ! A37   A(1,19,17)            120.6463         -DE/DX =    0.0                 !
 ! A38   A(1,19,20)            119.136          -DE/DX =    0.0                 !
 ! A39   A(17,19,20)           120.0685         -DE/DX =    0.0                 !
 ! A40   A(18,21,22)           111.5301         -DE/DX =    0.0                 !
 ! A41   A(18,21,23)           110.8734         -DE/DX =    0.0                 !
 ! A42   A(18,21,24)           111.1229         -DE/DX =    0.0                 !
 ! A43   A(22,21,23)           108.3725         -DE/DX =    0.0                 !
 ! A44   A(22,21,24)           108.0444         -DE/DX =    0.0                 !
 ! A45   A(23,21,24)           106.7139         -DE/DX =    0.0                 !
 ! A46   A(17,25,26)           111.8431         -DE/DX =    0.0                 !
 ! A47   A(17,25,27)           111.0074         -DE/DX =    0.0                 !
 ! A48   A(17,25,28)           111.1398         -DE/DX =    0.0                 !
 ! A49   A(26,25,27)           106.8846         -DE/DX =    0.0                 !
 ! A50   A(26,25,28)           108.0721         -DE/DX =    0.0                 !
 ! A51   A(27,25,28)           107.6898         -DE/DX =    0.0                 !
 ! D1    D(3,1,2,4)             94.9586         -DE/DX =    0.0                 !
 ! D2    D(3,1,2,13)           -80.4917         -DE/DX =    0.0                 !
 ! D3    D(19,1,2,4)            -9.2232         -DE/DX =    0.0                 !
 ! D4    D(19,1,2,13)          175.3266         -DE/DX =    0.0                 !
 ! D5    D(29,1,2,4)          -170.989          -DE/DX =    0.0                 !
 ! D6    D(29,1,2,13)           13.5607         -DE/DX =    0.0                 !
 ! D7    D(2,1,3,9)             74.7844         -DE/DX =    0.0                 !
 ! D8    D(2,1,3,10)           -83.4774         -DE/DX =    0.0                 !
 ! D9    D(19,1,3,9)          -163.164          -DE/DX =    0.0                 !
 ! D10   D(19,1,3,10)           38.5741         -DE/DX =    0.0                 !
 ! D11   D(29,1,3,9)           -43.7491         -DE/DX =    0.0                 !
 ! D12   D(29,1,3,10)          157.989          -DE/DX =    0.0                 !
 ! D13   D(2,1,19,17)            8.9755         -DE/DX =    0.0                 !
 ! D14   D(2,1,19,20)         -175.4617         -DE/DX =    0.0                 !
 ! D15   D(3,1,19,17)          -94.5078         -DE/DX =    0.0                 !
 ! D16   D(3,1,19,20)           81.055          -DE/DX =    0.0                 !
 ! D17   D(29,1,19,17)         170.6016         -DE/DX =    0.0                 !
 ! D18   D(29,1,19,20)         -13.8356         -DE/DX =    0.0                 !
 ! D19   D(1,2,4,11)          -176.826          -DE/DX =    0.0                 !
 ! D20   D(1,2,4,18)             4.276          -DE/DX =    0.0                 !
 ! D21   D(13,2,4,11)           -1.3723         -DE/DX =    0.0                 !
 ! D22   D(13,2,4,18)          179.7297         -DE/DX =    0.0                 !
 ! D23   D(1,2,13,14)          -11.4159         -DE/DX =    0.0                 !
 ! D24   D(1,2,13,15)          107.473          -DE/DX =    0.0                 !
 ! D25   D(1,2,13,16)         -131.1374         -DE/DX =    0.0                 !
 ! D26   D(4,2,13,14)          173.2817         -DE/DX =    0.0                 !
 ! D27   D(4,2,13,15)          -67.8294         -DE/DX =    0.0                 !
 ! D28   D(4,2,13,16)           53.5602         -DE/DX =    0.0                 !
 ! D29   D(1,3,9,7)           -160.523          -DE/DX =    0.0                 !
 ! D30   D(10,3,9,7)            -1.2068         -DE/DX =    0.0                 !
 ! D31   D(1,3,10,5)           161.2974         -DE/DX =    0.0                 !
 ! D32   D(9,3,10,5)             1.5964         -DE/DX =    0.0                 !
 ! D33   D(2,4,11,12)           10.1431         -DE/DX =    0.0                 !
 ! D34   D(18,4,11,12)        -170.9014         -DE/DX =    0.0                 !
 ! D35   D(2,4,18,17)            1.0967         -DE/DX =    0.0                 !
 ! D36   D(2,4,18,21)         -179.3334         -DE/DX =    0.0                 !
 ! D37   D(11,4,18,17)        -177.8478         -DE/DX =    0.0                 !
 ! D38   D(11,4,18,21)           1.7221         -DE/DX =    0.0                 !
 ! D39   D(6,5,7,8)             -0.3063         -DE/DX =    0.0                 !
 ! D40   D(6,5,7,9)           -179.8256         -DE/DX =    0.0                 !
 ! D41   D(10,5,7,8)           179.8595         -DE/DX =    0.0                 !
 ! D42   D(10,5,7,9)             0.3401         -DE/DX =    0.0                 !
 ! D43   D(6,5,10,3)           178.8906         -DE/DX =    0.0                 !
 ! D44   D(7,5,10,3)            -1.265          -DE/DX =    0.0                 !
 ! D45   D(5,7,9,3)              0.4291         -DE/DX =    0.0                 !
 ! D46   D(8,7,9,3)           -179.1261         -DE/DX =    0.0                 !
 ! D47   D(19,17,18,4)          -1.5839         -DE/DX =    0.0                 !
 ! D48   D(19,17,18,21)        178.8476         -DE/DX =    0.0                 !
 ! D49   D(25,17,18,4)         178.8604         -DE/DX =    0.0                 !
 ! D50   D(25,17,18,21)         -0.708          -DE/DX =    0.0                 !
 ! D51   D(18,17,19,1)          -3.4134         -DE/DX =    0.0                 !
 ! D52   D(18,17,19,20)       -178.9348         -DE/DX =    0.0                 !
 ! D53   D(25,17,19,1)         176.1404         -DE/DX =    0.0                 !
 ! D54   D(25,17,19,20)          0.6189         -DE/DX =    0.0                 !
 ! D55   D(18,17,25,26)        -55.4369         -DE/DX =    0.0                 !
 ! D56   D(18,17,25,27)         63.8457         -DE/DX =    0.0                 !
 ! D57   D(18,17,25,28)       -176.3217         -DE/DX =    0.0                 !
 ! D58   D(19,17,25,26)        125.0103         -DE/DX =    0.0                 !
 ! D59   D(19,17,25,27)       -115.7071         -DE/DX =    0.0                 !
 ! D60   D(19,17,25,28)          4.1256         -DE/DX =    0.0                 !
 ! D61   D(4,18,21,22)           5.7223         -DE/DX =    0.0                 !
 ! D62   D(4,18,21,23)         126.5914         -DE/DX =    0.0                 !
 ! D63   D(4,18,21,24)        -114.9006         -DE/DX =    0.0                 !
 ! D64   D(17,18,21,22)       -174.7154         -DE/DX =    0.0                 !
 ! D65   D(17,18,21,23)        -53.8463         -DE/DX =    0.0                 !
 ! D66   D(17,18,21,24)         64.6618         -DE/DX =    0.0                 !
 --------------------------------------------------------------------------------
 GradGradGradGradGradGradGradGradGradGradGradGradGradGradGradGradGradGrad


 ----------------------------------------------------------------------

 Electric dipole moment (input orientation):
 (Debye = 10**-18 statcoulomb cm , SI units = C m)
                  (au)            (Debye)         (10**-30 SI)
   Tot        0.529446D+00      0.134572D+01      0.448883D+01
   x          0.211102D-01      0.536567D-01      0.178980D+00
   y          0.252431D+00      0.641616D+00      0.214020D+01
   z          0.464915D+00      0.118170D+01      0.394171D+01

 Dipole polarizability, Alpha (input orientation).
 (esu units = cm**3 , SI units = C**2 m**2 J**-1)
 Alpha(0;0):
               (au)            (10**-24 esu)      (10**-40 SI)
   iso        0.161333D+03      0.239070D+02      0.266002D+02
   aniso      0.794605D+02      0.117748D+02      0.131013D+02
   xx         0.135004D+03      0.200056D+02      0.222592D+02
   yx         0.250206D+02      0.370767D+01      0.412534D+01
   yy         0.204372D+03      0.302849D+02      0.336965D+02
   zx         0.958422D+00      0.142024D+00      0.158022D+00
   zy        -0.807954D+01     -0.119726D+01     -0.133214D+01
   zz         0.144621D+03      0.214307D+02      0.238448D+02

 ----------------------------------------------------------------------

 Dipole orientation:
     6          8.98876238         -5.26297053          1.49312287
     6          7.27563801         -5.74860118          3.49293668
     6          7.58849873         -1.36947359          0.52490886
     6          5.06310209         -7.07331325          2.92292681
     6          4.61873719          1.29189584         -0.69372291
     1          3.00273850          1.78791324         -1.85051081
     6          5.73328599          2.84673801          1.03009874
     1          5.23096990          4.76576387          1.51995942
    16          8.27380116          1.27708712          2.44974279
     7          5.68021230         -1.09744474         -0.93154785
     8          3.25495524         -7.50983983          4.73329403
     1          3.63975599         -6.53222770          6.22273792
     6          7.72772497         -4.70229718          6.10219653
     1          9.63343601         -3.92591902          6.26813294
     1          6.41726939         -3.15534496          6.55434956
     1          7.52961536         -6.15884254          7.56679024
     6          6.43184064         -7.74013999         -1.41458344
     6          4.58917627         -8.06164867          0.49642256
     6          8.62974134         -6.41333114         -0.88948714
     1         10.03536428         -6.13215063         -2.35594457
     6          2.16435938         -9.45376418         -0.04221137
     1          0.88059576         -9.38484449          1.56540231
     1          1.19757328         -8.64358704         -1.68482077
     1          2.52948315        -11.44595330         -0.48774347
     6          5.98923109         -8.82358989         -4.01417206
     1          5.60129928        -10.85702332         -3.94576952
     1          4.35602897         -7.92961806         -4.92326451
     1          7.62804124         -8.52480232         -5.23443040
     1         10.83180753         -4.48958563          1.95839929

 Electric dipole moment (dipole orientation):
 (Debye = 10**-18 statcoulomb cm , SI units = C m)
                  (au)            (Debye)         (10**-30 SI)
   Tot        0.529446D+00      0.134572D+01      0.448883D+01
   x          0.000000D+00      0.000000D+00      0.000000D+00
   y          0.000000D+00      0.000000D+00      0.000000D+00
   z          0.529446D+00      0.134572D+01      0.448883D+01

 Dipole polarizability, Alpha (dipole orientation).
 (esu units = cm**3 , SI units = C**2 m**2 J**-1)
 Alpha(0;0):
               (au)            (10**-24 esu)      (10**-40 SI)
   iso        0.161333D+03      0.239070D+02      0.266002D+02
   aniso      0.794605D+02      0.117748D+02      0.131013D+02
   xx         0.134438D+03      0.199216D+02      0.221658D+02
   yx         0.213297D+02      0.316074D+01      0.351680D+01
   yy         0.197118D+03      0.292099D+02      0.325004D+02
   zx         0.123025D+02      0.182304D+01      0.202841D+01
   zy         0.213741D+02      0.316731D+01      0.352411D+01
   zz         0.152442D+03      0.225896D+02      0.251343D+02

 ----------------------------------------------------------------------
 Unable to Open any file for archive entry.
 1\1\GINC-EXP-1-29\Freq\UB3LYP\6-31G(d,p)\C12H14N1O1S1(2)\JCUZICK\05-Ma
 y-2026\0\\#N Geom=AllCheck Guess=TCheck SCRF=Check GenChk UB3LYP/6-31G
 (d,p) Freq\\CuL_subs\\0,2\C,4.8123162987,-2.1193761722,1.8320286961\C,
 3.9513335145,-1.8315205241,2.919972058\C,4.0306721077,-0.5451895178,0.
 4293233222\C,2.7765697547,-2.5796437478,3.0360128877\C,2.4205044947,0.
 4011272288,-0.7457606589\H,1.5390142305,0.3486328541,-1.3743456008\C,3
 .0378424701,1.5532817159,-0.3605451529\H,2.7723100377,2.5721560731,-0.
 6064949464\S,4.4194485654,1.1677677631,0.6415578098\N,2.9895176732,-0.
 7759087571,-0.2758312479\O,1.8610855614,-2.3162374733,4.0255402369\H,2
 .0907309942,-1.4877936008,4.4628796071\C,4.2398147128,-0.6889535177,3.
 8589153588\H,5.2467625219,-0.2961806421,3.699930354\H,3.5481926252,0.1
 516743482,3.7063702813\H,4.1737723019,-0.99584903,4.9111521106\C,3.412
 3145243,-3.9915017727,1.1598263999\C,2.4800872518,-3.6490212207,2.1678
 273841\C,4.5783813295,-3.2536567234,1.0226949569\H,5.2891277507,-3.500
 3930184,0.240662561\C,1.1941073862,-4.4194422826,2.3199330659\H,0.5488
 946077,-3.9749035567,3.0766552316\H,0.643941486,-4.4518642631,1.372635
 6088\H,1.3884294269,-5.4604277405,2.6078354197\C,3.1292473298,-5.14895
 70139,0.2345491756\H,2.9364715079,-6.0754253188,0.7875612339\H,2.24175
 57594,-4.9537656221,-0.3789791038\H,3.9683870129,-5.3266360218,-0.4424
 421424\H,5.7924627626,-1.6521354457,1.8142180933\\Version=ES64L-G16Rev
 C.01\HF=-993.8248987\S2=0.775068\S2-1=0.\S2A=0.750468\RMSD=4.521e-09\R
 MSF=8.485e-07\ZeroPoint=0.2306935\Thermal=0.246385\ETot=-993.5785137\H
 Tot=-993.5775695\GTot=-993.6398065\Dipole=0.0211102,0.2524314,0.464915
 \DipoleDeriv=0.1414399,-0.0823093,0.0105647,0.0564423,-0.2267952,0.150
 3905,0.014726,0.1599083,-0.031006,-0.1924929,0.3442743,0.03233,0.06381
 62,0.021654,0.2781766,0.0266988,-0.1299062,-0.0160058,0.1039744,-0.569
 5306,0.7224431,0.3920785,1.163589,-0.2233972,0.2230637,-0.5542364,0.52
 05866,0.4341566,-0.2942146,-0.619752,-0.248125,-0.2165503,0.2351834,-0
 .4988123,-0.0973106,0.8097814,0.1542426,-0.0597648,0.1614742,-0.095753
 4,0.1193806,-0.0529954,0.1306945,-0.0924984,0.1195536,-0.0024632,0.046
 2902,-0.1226231,-0.0303382,0.0483691,0.0004681,-0.0900998,0.0311494,0.
 0472166,0.0871026,0.0543941,0.1941078,-0.0440331,-0.2576652,0.1119635,
 0.2366612,0.0389156,-0.1015436,0.085566,0.0993683,-0.0878284,0.0249869
 ,0.0230791,0.0250001,-0.052219,0.0621343,0.1070966,-0.0529889,0.003855
 1,-0.1747137,-0.1543749,-0.4949412,0.0824042,-0.1165458,0.03742,-0.072
 3826,-0.5054874,0.3741146,-0.6671508,-0.1605914,-0.5233499,-0.0493158,
 -0.2749116,0.3425614,-0.6729086,-0.6744618,0.1088635,0.5461987,0.18460
 31,-0.2423469,-0.1825392,0.4601332,-0.0122343,-1.0043614,0.2975725,-0.
 0688328,-0.0713292,-0.0415631,0.1804074,-0.0239384,-0.0470113,-0.01972
 31,0.3446143,0.0658308,0.0014201,0.0620966,-0.0235037,0.0627547,-0.039
 8472,0.022623,-0.0223495,0.0869588,-0.0644035,-0.0693732,0.0008037,-0.
 0352471,0.0346562,-0.0263229,0.066102,0.018145,0.0622851,-0.0261054,0.
 0850521,-0.0365267,0.0422098,-0.0776242,-0.0674305,-0.0364554,-0.01111
 78,0.0248511,0.0730828,-0.0101177,0.0323865,-0.0100133,0.0206185,0.038
 1956,-0.0182805,-0.0015707,-0.1670725,-0.0115761,-0.0181585,0.2072584,
 0.0006633,0.2501885,0.1643747,0.0256422,0.2844172,0.0090103,0.1738481,
 0.2095074,-0.0828172,0.2751088,0.1300362,-0.1563681,0.0807947,0.008150
 9,-0.1160667,-0.1053566,0.0784416,-0.195432,-0.0027665,-0.0610452,-0.1
 912925,-0.2042324,0.1681415,-0.1543463,0.0139906,0.0188335,0.0617654,0
 .0017412,0.045219,-0.0386034,0.105768,-0.0688284,-0.0080528,0.0237597,
 -0.0037423,0.0261575,-0.0890694,-0.0046539,0.0188849,-0.0124247,-0.062
 3994,0.0839005,0.0071535,-0.0042423,0.0589122,0.0579071,0.068261,-0.04
 03959,0.0859257,-0.0078734,0.0120829,-0.0257991,-0.0893146,-0.0346397,
 -0.0341432,0.0375354,0.0144141,-0.0957893,-0.0052366,-0.0738149,-0.007
 9052,-0.0232308,0.0045302,-0.0269461,-0.1588443,0.0615301,0.0036166,0.
 0602445,0.0602089,0.0920646,-0.0617393,-0.0580095,-0.0140919,0.083161,
 -0.0411543,-0.0166892,-0.02296,0.066907,0.0637163,-0.0551032,0.0108683
 ,-0.040559,-0.1411389,0.0227198,0.0109845,0.0681121,-0.0139063,-0.0574
 756,-0.0089267,-0.0973097,0.0330502,-0.0040737,-0.0086089,-0.0743854,-
 0.0502121,-0.0037399,-0.0523408,0.059678,0.1150766,-0.0144239,0.037502
 1,-0.0114295,0.0642267,-0.063393,-0.0092266,-0.0386447,-0.0654922,0.00
 1158,-0.067064,0.082617,-0.0500663,-0.019804,-0.0574501,0.0893804\Pola
 r=135.0043708,25.0205884,204.3723612,0.9584222,-8.0795433,144.6212946\
 Quadrupole=-1.9525494,0.4781965,1.4743529,-0.0421757,5.0628563,1.82904
 79\PG=C01 [X(C12H14N1O1S1)]\NImag=1\\0.60540917,0.18238100,0.37950916,
 -0.13266169,0.25679528,0.39277631,-0.17631507,0.00800347,0.07183871,0.
 53673330,0.01695456,-0.08905005,-0.06530612,0.15340985,0.43974495,0.12
 704222,-0.07280167,-0.18644331,-0.15167535,0.17961509,0.46947445,-0.00
 815779,-0.03011163,0.01656091,0.01224532,-0.00153755,-0.00782566,0.440
 34116,-0.00496994,0.02694095,-0.02293992,-0.01069626,-0.00269295,0.019
 79936,0.03190361,0.21833992,0.00056271,-0.03641327,0.02729607,0.016360
 28,0.00762543,-0.02760171,0.25333588,0.01105202,0.23825964,-0.03439291
 ,-0.00012939,0.04710399,-0.23075786,-0.12306552,0.00134516,-0.00370410
 ,0.00404615,-0.00609564,0.55563091,-0.00715475,0.01522722,0.04525814,-
 0.07740515,-0.15205094,-0.03772511,-0.00763870,0.00742546,-0.00671674,
 0.15720527,0.47630115,0.02273270,0.01616351,0.01222218,0.04857286,0.00
 246554,-0.10211850,-0.00510796,0.00588469,-0.00498177,-0.15439824,0.20
 362636,0.47112341,0.00030775,-0.00322270,0.00223673,0.00098424,-0.0006
 2985,-0.00096022,-0.06010819,0.00825313,-0.05173999,0.00038084,0.00019
 710,-0.00037878,0.57006494,-0.00078128,0.00124065,-0.00168740,-0.00020
 638,-0.00006281,0.00021075,0.05831905,0.00012483,0.03888211,-0.0002054
 4,-0.00040247,-0.00002361,0.08249413,0.59915462,-0.00127594,-0.0005367
 6,0.00003954,-0.00010723,-0.00049022,0.00054599,-0.05016057,0.00529356
 ,-0.02518345,0.00017807,-0.00051861,-0.00053642,0.31253336,0.03528902,
 0.34927860,0.00005076,-0.00011147,0.00006372,-0.00008801,0.00003868,-0
 .00000047,0.00085450,0.00125910,-0.00164429,-0.00002391,0.00015635,0.0
 0017808,-0.23912868,-0.01771559,-0.14729705,0.24939276,0.00006179,0.00
 003865,0.00005042,0.00012036,-0.00007385,-0.00009988,0.00316683,-0.003
 97183,0.00262450,0.00000672,-0.00012687,-0.00013763,-0.02070614,-0.055
 45615,-0.01372830,0.01386642,0.05690458,-0.00011114,0.00026648,-0.0001
 4854,-0.00012374,0.00010668,0.00012475,-0.00149211,0.00086275,0.001942
 16,-0.00011571,0.00007478,0.00018472,-0.14700580,-0.01131545,-0.136935
 37,0.16156808,0.00819287,0.13814484,0.00062264,-0.00149316,0.00078186,
 0.00013384,0.00119016,-0.00037629,-0.00836980,0.02596360,-0.01372168,-
 0.00063222,0.00009793,0.00015837,-0.15541802,-0.11832913,-0.06663478,-
 0.00460240,-0.01883848,-0.00484834,0.32053778,-0.00116415,-0.00116365,
 -0.00008378,0.00111911,-0.00067590,-0.00058734,-0.01126546,-0.05195167
 ,-0.00468086,0.00035326,-0.00081929,-0.00121689,-0.14287249,-0.3238851
 5,-0.08987924,0.00177166,0.00429831,0.00162000,0.03114440,0.81244196,0
 .00053566,-0.00071278,0.00082710,0.00003271,0.00026982,-0.00022084,-0.
 01437683,0.02043873,0.00150061,-0.00020577,0.00011979,0.00011372,-0.06
 528400,-0.07151556,-0.09826957,-0.00615349,-0.01346445,0.00032651,0.16
 816006,-0.01520815,0.20468595,0.00031898,-0.00013341,0.00021714,-0.000
 18338,0.00001110,-0.00001863,-0.00383042,0.00050610,-0.00439742,0.0000
 6323,0.00024923,0.00020747,0.00768991,-0.01065604,0.00715278,-0.001036
 88,0.00064773,0.00162883,-0.05894507,0.07209242,-0.03019907,0.05587433
 ,0.00005090,0.00011308,-0.00001698,-0.00004230,0.00001138,0.00002499,-
 0.00338859,-0.00089725,-0.00222742,0.00002738,0.00001743,-0.00002355,0
 .01140613,-0.00890222,0.00855241,-0.00024903,0.00016367,-0.00040851,0.
 06844786,-0.32705621,0.06578158,-0.07427306,0.33737465,0.00003754,0.00
 028010,-0.00008785,-0.00016364,0.00002614,0.00020801,-0.00350565,0.000
 32566,-0.00024168,-0.00009828,0.00000293,0.00010434,0.00617516,-0.0079
 6152,0.00309603,0.00170124,0.00032486,-0.00224009,-0.02967051,0.068810
 86,-0.04706791,0.03078162,-0.07065274,0.04441349,0.00123007,0.00297090
 ,-0.00075366,-0.00143736,-0.00028833,0.00091981,-0.02331839,0.00738911
 ,0.00728210,0.00034708,0.00059884,0.00068809,-0.03535398,-0.03798546,-
 0.03037606,0.00268539,-0.00350694,-0.00316577,-0.11021018,0.01529959,-
 0.05626434,-0.00458720,-0.00208776,-0.00150350,0.20091976,-0.00106343,
 -0.00273200,0.00028995,0.00107034,-0.00122550,0.00017862,-0.01614002,-
 0.08710663,-0.00738624,0.00012421,-0.00072608,-0.00143937,0.00148025,-
 0.01482488,0.00225338,-0.00089846,-0.00124497,0.00039793,0.02714463,-0
 .04031591,0.02008262,0.01560207,0.00273699,0.01115735,0.02441621,0.174
 81890,0.00135838,0.00190098,-0.00048485,-0.00137167,-0.00043118,0.0007
 5026,0.00621240,0.00819231,-0.02929559,0.00099108,0.00135487,0.0007366
 7,-0.03178651,-0.02469860,-0.01203790,-0.00322448,-0.00208698,0.004970
 45,-0.05765529,0.01133535,-0.07388692,-0.00232308,-0.00175163,-0.00420
 574,0.11614131,0.00867411,0.12041497,-0.00467154,0.01367460,-0.0088201
 4,-0.00485577,0.00112685,0.00360425,-0.34312040,-0.06671648,-0.1962827
 6,0.00045256,0.00189219,0.00315377,-0.08996221,0.04547939,-0.02423417,
 -0.00820098,0.02521170,-0.00645497,0.01681460,0.03378726,0.00388243,0.
 00453615,0.00001572,-0.00393656,-0.03012824,-0.05257330,-0.02831121,0.
 45936239,0.00323856,0.00266658,-0.00117815,-0.00101960,0.00013363,0.00
 011804,-0.04813585,-0.07057433,-0.02752479,0.00050584,-0.00009083,-0.0
 0044118,0.06212832,-0.19718315,0.05338692,0.00192357,-0.00070093,0.000
 43677,-0.01474614,-0.07229187,-0.00567594,-0.00402531,-0.00350459,-0.0
 0228220,-0.00592834,-0.02935652,-0.00228339,0.00423161,0.37105406,-0.0
 0254399,0.00585799,-0.00627150,-0.00331001,0.00108512,0.00222998,-0.20
 070563,-0.03902631,-0.18956805,0.00043905,0.00215240,0.00256543,-0.024
 51160,0.04285640,-0.08134498,-0.00482208,0.01799224,-0.00614540,0.0042
 6397,0.02725076,0.01258613,-0.00264284,0.00063562,0.00610996,-0.031522
 40,-0.03767708,-0.00440625,0.26526073,-0.01782930,0.27078299,-0.000327
 32,-0.00769935,-0.00328757,-0.03561421,0.00585292,0.03972005,-0.001749
 78,0.00240805,-0.00084917,-0.17599279,-0.01364963,0.09941276,-0.000189
 88,-0.00019220,-0.00034568,0.00009653,-0.00006504,0.00014931,0.0003535
 9,-0.00059200,0.00011859,0.00005928,-0.00002230,0.00010231,0.00006552,
 -0.00045397,0.00009156,0.00144710,-0.00038064,0.00108597,0.26798765,-0
 .00491292,0.00034815,-0.00615934,-0.01367846,0.00822385,0.01282740,0.0
 0145421,-0.00168709,0.00063473,0.02199931,-0.09058614,-0.06114748,0.00
 003933,0.00013917,0.00020644,-0.00003888,0.00004284,-0.00007418,-0.000
 26965,0.00039546,-0.00007388,-0.00004152,0.00000779,-0.00004502,-0.000
 04713,0.00039843,-0.00020416,-0.00063150,0.00023348,-0.00058209,0.1096
 3039,0.48179701,0.00065151,-0.00089702,0.00406805,0.01984913,-0.005050
 59,-0.00949025,0.00220290,-0.00370879,0.00139868,0.12671781,-0.0299450
 6,-0.17340588,0.00028571,0.00011239,0.00052842,-0.00011250,0.00008255,
 -0.00011811,-0.00042492,0.00078302,-0.00021199,-0.00008920,0.00002040,
 -0.00008376,-0.00012585,0.00073111,-0.00018802,-0.00150812,0.00063158,
 -0.00128498,-0.11385448,0.26682778,0.32722751,0.00022797,-0.00003409,0
 .00013818,-0.00116788,0.00230705,0.00215069,0.00026806,0.00023897,0.00
 031489,0.00514942,0.02804970,0.01498620,-0.00002675,-0.00003692,-0.000
 03050,-0.00002188,-0.00000883,-0.00003472,0.00012335,0.00003164,0.0000
 5465,-0.00001598,0.00000734,-0.00003544,-0.00008643,-0.00000047,-0.000
 02061,-0.00036537,-0.00007421,-0.00018318,-0.06211936,-0.13383398,-0.0
 5039801,0.06248898,-0.00035032,-0.00089843,-0.00044015,-0.00299383,0.0
 0127707,0.00277939,-0.00031344,0.00054550,-0.00015841,-0.00230598,-0.0
 0948744,-0.00375193,-0.00002210,-0.00003114,-0.00004330,0.00000646,-0.
 00001343,0.00002534,0.00013129,-0.00014416,0.00001985,0.00000551,-0.00
 000378,0.00002712,-0.00001123,-0.00017662,-0.00000311,0.00021573,-0.00
 010410,0.00016047,-0.09913519,-0.38392882,-0.20743667,0.10558152,0.390
 76349,-0.00045016,-0.00026167,-0.00111497,-0.00174779,-0.00008782,0.00
 155915,0.00003660,0.00024189,0.00003795,-0.00693892,-0.03112206,-0.022
 42798,-0.00009320,0.00003419,-0.00010129,0.00002125,-0.00000388,-0.000
 00539,0.00002121,-0.00004844,0.00004396,0.00001412,-0.00000130,0.00000
 191,0.00000404,-0.00004149,-0.00000410,-0.00001261,-0.00009938,0.00014
 656,-0.02521197,-0.17610684,-0.11390045,0.03008262,0.20750500,0.136328
 26,0.00721231,0.01417596,0.00994289,-0.08883936,-0.02896205,-0.0107578
 2,-0.00037489,0.00007362,-0.00017912,-0.00551206,-0.02105382,-0.013167
 31,-0.00015295,0.00012113,-0.00013983,0.00000395,-0.00004739,0.0000071
 0,0.00012096,-0.00026529,-0.00003772,-0.00000050,0.00000190,-0.0000342
 2,0.00000503,-0.00002950,0.00067269,0.00021914,-0.00010398,0.00020086,
 -0.00009737,-0.00303657,-0.00743735,0.00099862,-0.00023488,0.00107151,
 0.56889084,0.00075767,-0.00414314,-0.00923367,-0.02241967,-0.15029431,
 -0.06730793,0.00006199,0.00007623,0.00022700,-0.01158537,-0.01673838,-
 0.01122072,-0.00007754,-0.00012409,0.00002901,0.00000819,-0.00001490,0
 .00003434,0.00020669,-0.00016652,0.00005302,-0.00000061,-0.00000403,0.
 00005656,-0.00008043,-0.00044698,0.00036592,0.00008127,0.00003137,-0.0
 0003652,0.00473518,-0.00255739,-0.00122976,-0.00064477,0.00291118,-0.0
 0046258,0.01029021,0.50313469,-0.00389282,-0.02168048,-0.01936318,-0.0
 0650749,-0.06302746,-0.12696904,0.00056272,-0.00032065,0.00075660,-0.0
 0596886,-0.00293348,0.00497890,-0.00024604,-0.00022168,-0.00012735,-0.
 00004397,-0.00002733,0.00006118,0.00052420,-0.00011625,0.00001365,-0.0
 0004662,0.00001382,0.00001641,-0.00015510,-0.00003918,-0.00098193,-0.0
 0012088,0.00006364,-0.00020788,0.00100087,0.00281179,-0.00340518,0.001
 78305,-0.00045624,0.00251168,-0.01957752,-0.02968799,0.52251610,0.0006
 7411,0.00147307,0.00167212,-0.00416261,-0.00128286,0.00057960,0.000069
 07,-0.00069983,0.00000551,-0.00008039,-0.00023172,0.00008424,0.0002111
 8,0.00004368,0.00013097,0.00003396,0.00004822,-0.00003514,-0.00044560,
 0.00026513,0.00007885,0.00001236,-0.00000727,0.00002184,0.00023966,0.0
 0018030,-0.00011406,0.00002945,0.00015982,0.00000429,0.00069564,-0.000
 23222,-0.00042361,0.00034257,0.00039525,-0.00056359,-0.27911142,-0.089
 81751,0.03823164,0.29971682,-0.00119597,0.00057103,0.00158041,-0.02376
 411,-0.01077705,0.00422484,0.00008464,0.00037519,-0.00013490,0.0001905
 1,-0.00250090,-0.00407573,-0.00006028,-0.00008422,-0.00001155,-0.00001
 393,-0.00001438,0.00000994,0.00013116,-0.00005824,-0.00002127,-0.00000
 402,0.00000595,-0.00000074,-0.00006535,0.00005376,-0.00003384,-0.00007
 803,-0.00004593,-0.00004328,0.00016171,0.00042376,-0.00064079,0.000300
 21,-0.00082742,0.00044629,-0.08720996,-0.07834690,0.01397032,0.0966441
 1,0.08616983,-0.00148907,-0.00055175,0.00063479,-0.02053958,-0.0074530
 4,0.00274990,-0.00000239,-0.00022644,-0.00006017,0.00083932,-0.0036233
 0,-0.00360505,0.00011250,-0.00000588,0.00006285,0.00001933,0.00002452,
 -0.00001280,-0.00017590,0.00013332,0.00000601,0.00001621,-0.00000318,0
 .00001782,0.00000499,0.00017446,-0.00016548,0.00002971,0.00006276,0.00
 004371,0.00066681,0.00033086,0.00075570,-0.00102018,0.00042280,-0.0006
 4129,0.04058699,0.01513355,-0.05318410,-0.04305263,-0.01174163,0.05658
 270,-0.00022465,0.00016711,0.00009179,0.00745083,-0.00497231,0.0038784
 5,0.00009341,0.00091275,-0.00015963,-0.00106038,-0.00223119,-0.0005846
 6,-0.00020173,-0.00014164,-0.00004203,-0.00003418,-0.00002775,0.000036
 86,0.00044192,-0.00015983,-0.00002862,-0.00001330,0.00000734,0.0000083
 3,-0.00024715,-0.00023569,-0.00027072,-0.00013139,-0.00010597,-0.00003
 129,0.00072725,0.00068414,-0.00006438,-0.00046319,-0.00033812,0.000347
 11,-0.14950379,0.11889638,-0.02521125,-0.01893111,0.02353903,-0.005581
 19,0.15999920,-0.00123855,-0.00214042,0.00162028,0.01187903,-0.0197222
 8,-0.00161123,0.00042896,-0.00017277,0.00038061,0.00315589,-0.00004389
 ,-0.00371756,0.00008255,0.00005287,-0.00003739,-0.00000568,0.00002035,
 -0.00003994,-0.00015616,0.00021952,0.00000648,-0.00002261,-0.00000255,
 -0.00003363,-0.00008293,0.00032218,0.00011926,-0.00050428,0.00003105,-
 0.00024519,-0.00131181,0.00190481,0.00241468,-0.00116483,-0.00240533,0
 .00127364,0.12423222,-0.19015909,0.03088765,-0.00718925,0.00935845,-0.
 00188928,-0.13372794,0.20953590,-0.00106669,-0.00127737,-0.00022019,0.
 01458258,-0.01765081,0.00163180,0.00050985,-0.00108462,0.00056275,0.00
 107311,0.00041716,-0.00019357,0.00009991,0.00002719,0.00001101,0.00000
 692,0.00003409,-0.00000940,-0.00028957,0.00025886,-0.00009941,-0.00002
 273,-0.00000519,0.00002550,-0.00003192,0.00051806,-0.00007493,-0.00037
 512,0.00023058,-0.00025741,-0.00062602,-0.00007040,0.00081714,0.000401
 57,0.00076388,0.00009061,-0.02410943,0.02909135,-0.05081895,0.00384355
 ,-0.00464841,0.00036527,0.02759613,-0.02971870,0.05395457,-0.00048425,
 0.00040641,0.00008760,0.00014853,0.00354700,-0.00408882,0.00002089,-0.
 00010106,-0.00000154,0.00028276,-0.00160061,-0.00208876,0.00005436,-0.
 00003515,0.00003572,0.00000806,0.00001676,-0.00001109,-0.00005145,0.00
 005454,0.00005426,0.00001353,-0.00000184,0.00001114,0.00004567,0.00004
 088,-0.00022807,-0.00000302,0.00003222,0.00002240,0.00013790,0.0010069
 4,0.00154286,-0.00248245,-0.00073080,-0.00117995,-0.04867480,-0.005727
 97,0.01325005,-0.00011283,-0.00873597,0.02970829,0.00174550,0.00589221
 ,-0.02129618,0.04849065,-0.00183277,-0.00257028,-0.00181606,0.00275653
 ,0.00812115,-0.02612403,0.00027465,-0.00081684,0.00038063,0.00044737,0
 .00001769,-0.00109835,0.00017540,0.00006652,0.00005938,0.00002091,0.00
 003606,-0.00004254,-0.00035696,0.00025610,0.00001236,-0.00000575,-0.00
 000509,-0.00000004,0.00008552,0.00030863,0.00015352,-0.00020802,0.0000
 9036,-0.00010476,-0.00012482,0.00051007,0.00124199,-0.00059110,0.00036
 990,-0.00011135,-0.00541311,-0.06826544,0.07108207,0.00046152,-0.00384
 346,0.00983182,-0.00338967,-0.00700263,0.02326234,0.00594507,0.0737167
 9,-0.00246995,-0.00176278,-0.00108454,0.00167055,0.00128674,-0.0179012
 1,0.00028964,0.00009140,0.00042568,0.00386892,-0.00072336,-0.00209740,
 0.00004903,-0.00006151,0.00004504,-0.00001853,-0.00000036,-0.00000969,
 0.00007657,0.00011582,-0.00002842,-0.00003370,0.00000101,-0.00001332,-
 0.00012776,0.00002423,-0.00008890,-0.00030761,0.00000769,-0.00018763,-
 0.00071675,0.00116171,0.00304889,-0.00220113,0.00029639,-0.00079221,0.
 01576179,0.07338500,-0.27839112,0.00005352,0.00134333,-0.00386232,0.00
 019666,0.00189480,-0.00399225,-0.01645323,-0.07659855,0.30510400,0.004
 93704,-0.05859302,-0.02769449,-0.03736694,-0.00810630,0.01491286,-0.00
 765956,0.00854333,-0.00834888,0.04281757,0.05176649,0.02087264,0.00036
 942,-0.00024567,0.00091133,0.00001543,-0.00011280,0.00010559,0.0001840
 7,-0.00047695,0.00019867,0.00008946,0.00011168,0.00018410,0.00116015,0
 .00068949,0.00023868,0.00086624,0.00032547,-0.00101701,-0.00062451,-0.
 00846397,-0.00496294,0.00196286,-0.00067080,-0.00055217,-0.00186328,0.
 00051844,0.00035552,0.00035987,0.00003589,0.00023706,0.00043089,0.0007
 6176,0.00044983,0.00039616,0.00031671,0.00031028,0.56201474,-0.0250543
 5,-0.02738069,-0.00856240,-0.00755318,-0.00301413,0.00517020,-0.000352
 68,0.00038488,-0.00174785,0.02521258,0.00123093,-0.01677161,0.00051772
 ,-0.00007946,0.00034353,-0.00008273,0.00004666,-0.00000970,-0.00001519
 ,0.00022198,-0.00001702,-0.00004266,0.00002932,0.00009675,0.00019702,0
 .00106890,-0.00003567,-0.00142887,-0.00008222,-0.00125540,-0.00446487,
 -0.00245464,-0.00338113,0.00019777,0.00029166,-0.00182634,0.00035449,-
 0.00082256,0.00009230,0.00015292,0.00025818,0.00009119,-0.00003111,0.0
 0004162,-0.00011018,0.00008705,0.00013357,0.00018257,0.16206065,0.4683
 3093,-0.02136001,0.01135842,0.01501206,0.01794141,0.00630138,-0.007485
 90,0.00450077,-0.00412038,0.00467884,-0.00588247,-0.03754027,-0.032740
 00,-0.00016271,0.00021763,-0.00005719,-0.00007256,0.00013284,-0.000089
 09,-0.00030936,0.00076454,-0.00025476,-0.00014317,-0.00002569,-0.00016
 016,-0.00096008,-0.00011201,-0.00050973,-0.00056553,0.00022133,-0.0002
 6243,-0.00084996,-0.00144644,0.00525147,0.00029798,-0.00064904,-0.0003
 6746,0.00086238,-0.00025361,-0.00096736,-0.00003277,0.00008143,-0.0001
 2869,-0.00022308,-0.00020234,-0.00017784,-0.00035163,-0.00027694,-0.00
 014111,-0.13151719,0.17276687,0.43369139,-0.00422986,0.01831436,0.0006
 9997,0.00190045,-0.02108325,-0.01778576,0.00335605,-0.00549213,0.00529
 687,-0.11685194,-0.07182479,-0.03195221,0.00009562,0.00001371,-0.00006
 270,-0.00003204,0.00007745,-0.00007600,-0.00018304,0.00049941,-0.00017
 470,-0.00004615,-0.00000229,-0.00011635,-0.00051614,-0.00033257,-0.000
 34537,0.00006716,0.00052553,0.00029512,0.00630255,0.02577670,0.0252606
 0,-0.00413290,0.00041269,0.00482227,-0.00322458,-0.00313637,0.00333675
 ,-0.00025032,-0.00121005,-0.00083073,-0.00019493,-0.00021266,-0.000147
 84,0.00027870,0.00070308,0.00007197,-0.17412746,0.02994563,0.10869836,
 0.52867602,0.00576475,-0.01246234,-0.02184509,-0.04716903,-0.02775005,
 0.00537636,0.00264970,-0.00295173,0.00222605,-0.02361925,-0.19253604,-
 0.11192060,0.00036998,-0.00004290,0.00044508,-0.00006228,0.00004828,-0
 .00006072,-0.00003448,0.00038228,-0.00001668,-0.00006068,0.00001870,0.
 00003185,-0.00003345,0.00036721,-0.00054748,-0.00126152,0.00001492,-0.
 00141866,0.00443065,-0.00963937,-0.01982592,0.00059552,0.00171991,-0.0
 0012073,-0.00455521,0.00377625,-0.00021282,0.00003620,-0.00025699,-0.0
 0022355,0.00118674,0.00080448,0.00048961,0.00033724,-0.00025973,0.0000
 4502,-0.01226493,-0.11110322,-0.03714464,0.13041488,0.44960880,0.00650
 614,-0.02081245,-0.02568991,-0.04640613,-0.01759920,0.02259765,-0.0001
 2802,-0.00020220,-0.00152919,0.01603836,-0.07756257,-0.15292535,-0.000
 24818,0.00007414,0.00039066,-0.00004275,-0.00000809,0.00004692,0.00007
 941,-0.00010276,0.00009982,-0.00005603,-0.00000045,0.00012724,0.000350
 52,0.00047174,-0.00034061,-0.00017013,0.00014370,-0.00115862,0.0037764
 1,-0.03576987,-0.03311337,0.00467074,0.00027263,-0.00179818,0.00260755
 ,-0.00003856,0.00293595,0.00042475,0.00064841,0.00098270,0.00011109,-0
 .00024734,-0.00060553,0.00083710,0.00057996,0.00015415,0.06776145,-0.0
 6743409,-0.18038576,-0.13660479,0.19727863,0.45693374,-0.11439440,-0.0
 1452256,0.00944263,0.02904018,0.01835737,0.00148584,0.00802857,-0.0045
 7523,0.00506913,-0.01980936,-0.02460175,-0.01229363,0.00046126,0.00031
 871,-0.00007784,-0.00002694,0.00008040,-0.00008861,-0.00020945,0.00048
 768,-0.00028086,-0.00008698,-0.00002707,-0.00002758,-0.00088672,0.0005
 6370,-0.00031432,-0.00354607,0.00027577,-0.00070483,-0.00105921,0.0026
 5826,0.00361749,-0.00069538,-0.00011778,-0.00032613,-0.00040229,-0.002
 15007,0.00434649,0.00018426,0.00027766,-0.00015629,-0.00003389,-0.0007
 3119,-0.00071492,-0.00010194,0.00079852,0.00044970,-0.26435247,-0.1399
 6336,0.01577662,-0.04357782,0.01215673,0.04667700,0.58295955,-0.059051
 52,-0.19145019,-0.13386491,0.02904255,-0.00043149,-0.01853054,0.014261
 99,-0.03080164,0.01878658,-0.02258739,-0.02900127,-0.01062323,0.000175
 77,0.00029419,-0.00086369,0.00001119,0.00017597,-0.00015397,-0.0002470
 2,0.00032618,-0.00011490,0.00014352,-0.00010821,-0.00010660,-0.0007572
 9,-0.00117708,0.00002922,-0.00372964,0.00025392,-0.00112654,0.00198264
 ,0.00151358,0.00092399,-0.00046461,0.00012456,0.00022356,-0.00044330,0
 .00321853,-0.00111143,-0.00041948,-0.00020635,-0.00001365,-0.00024398,
 -0.00025203,0.00005593,-0.00022607,-0.00078443,-0.00055035,-0.09461609
 ,-0.16350326,-0.03206945,-0.01896780,0.03246206,0.03889281,0.14663946,
 0.47026140,-0.01620752,-0.11605865,-0.16283101,0.01565154,-0.02302835,
 -0.02315861,0.00759064,-0.00325608,0.00810014,-0.01059934,-0.00907322,
 -0.00354826,0.00112728,0.00005714,0.00075740,-0.00010739,0.00004933,-0
 .00010844,0.00003793,0.00104727,-0.00010159,-0.00012646,0.00004807,-0.
 00010273,-0.00079174,0.00149691,-0.00065609,-0.00539130,0.00060648,-0.
 00346956,0.00262478,0.00026470,-0.00332020,0.00002109,0.00032683,0.000
 48970,0.00412173,-0.00170396,0.00089730,-0.00024191,0.00016462,0.00001
 718,0.00013807,-0.00085881,-0.00126085,0.00005569,-0.00010085,0.000047
 57,0.05939452,0.00276298,-0.09794171,0.01948805,0.01707126,0.00837630,
 -0.20271915,0.20632386,0.46698181,0.00608002,-0.00131801,-0.00598226,0
 .00188529,-0.00258029,0.00021848,0.00070762,-0.00047406,0.00055713,-0.
 00038508,-0.00050161,-0.00070983,-0.00007092,0.00007527,-0.00011120,-0
 .00000808,0.00000728,-0.00000425,0.00002172,-0.00001541,0.00002764,-0.
 00002280,-0.00001297,0.00000191,-0.00009463,-0.00002230,-0.00002832,-0
 .00023747,-0.00016891,-0.00027304,0.00004419,0.00031921,-0.00025536,0.
 00000210,0.00002552,0.00006217,0.00034514,-0.00029814,-0.00003270,-0.0
 0002915,0.00001472,-0.00000670,-0.00003693,-0.00007948,-0.00004737,0.0
 0000563,0.00004313,0.00001580,-0.01309062,0.00755496,0.01993664,-0.001
 71056,-0.00540309,0.00092444,-0.17201001,0.03316700,0.14002854,0.17950
 528,0.01859661,-0.00356711,-0.01845549,-0.00341363,-0.00208109,-0.0030
 6444,-0.00086359,0.00092787,-0.00063885,-0.00035210,-0.00081340,0.0000
 1391,0.00006964,0.00001129,0.00009840,0.00000649,-0.00000656,0.0000016
 1,-0.00007184,-0.00000094,-0.00003189,0.00001817,0.00001097,-0.0000101
 0,0.00009573,-0.00003055,0.00001408,0.00036261,-0.00000371,0.00030681,
 0.00024292,0.00000039,0.00041245,-0.00010320,-0.00002623,0.00001005,0.
 00059055,0.00048595,-0.00104364,0.00000801,0.00002085,0.00006432,0.000
 05531,-0.00004228,-0.00005625,-0.00003323,-0.00032996,-0.00028073,-0.0
 1100802,0.00645437,0.01151426,-0.00439802,0.00065442,-0.00253141,0.034
 10813,-0.06241108,-0.05471502,-0.03378267,0.06250295,0.01152467,-0.000
 93652,-0.00955040,0.00001529,-0.00458691,0.00125925,-0.00023397,0.0000
 9390,-0.00026608,-0.00065378,0.00025543,0.00010294,-0.00003424,0.00002
 945,-0.00004917,0.00001079,-0.00000595,0.00000118,-0.00001461,-0.00007
 152,0.00002457,0.00001623,-0.00000517,0.00000330,0.00005252,-0.0000977
 1,0.00004507,0.00021561,-0.00005775,0.00017611,0.00002940,0.00024212,-
 0.00048044,-0.00005290,0.00001785,0.00005740,0.00081624,-0.00019511,-0
 .00004300,-0.00004495,0.00002980,0.00002371,-0.00004204,-0.00020128,-0
 .00019262,0.00005059,-0.00005605,-0.00005390,0.00096874,-0.00244153,0.
 00004278,0.00165784,-0.00202331,0.00354190,0.14246219,-0.05685965,-0.1
 9378653,-0.15307430,0.06385722,0.20061736,-0.00015852,-0.00074315,0.00
 015074,0.00265624,-0.00072973,0.00159487,-0.00004398,0.00018014,-0.000
 27723,-0.00366490,-0.01187304,-0.00478066,0.00004629,0.00000849,0.0000
 6898,-0.00001489,0.00001616,-0.00001071,-0.00001566,0.00005814,-0.0000
 0796,-0.00001262,0.00000154,0.00000479,-0.00002737,0.00011327,-0.00000
 078,-0.00014641,0.00000377,-0.00021694,-0.00269854,0.00044093,0.000308
 52,-0.00077810,0.00000959,0.00055930,0.00000166,0.00030610,-0.00001996
 ,-0.00000026,0.00009962,-0.00002079,0.00003309,0.00009667,0.00004486,-
 0.00000164,-0.00002975,0.00000793,-0.02292430,-0.01031042,0.00894666,-
 0.17287675,-0.05916099,0.01569358,0.00198774,0.00147093,0.00366964,-0.
 00037453,-0.00043969,-0.00012060,0.50921917,-0.00009658,-0.00202440,0.
 00085084,0.00079758,0.00178621,-0.00522129,-0.00116024,0.00068742,-0.0
 0074493,-0.02616173,-0.01341060,-0.00130892,0.00004643,-0.00007304,0.0
 0000139,0.00002765,-0.00002089,0.00001738,0.00002801,-0.00015721,0.000
 03377,0.00004702,0.00000822,0.00001706,0.00017272,-0.00014997,0.000129
 64,0.00046328,0.00005536,0.00027414,-0.00001571,-0.00168959,0.00106140
 ,-0.00042432,0.00022591,0.00038533,-0.00065460,-0.00029639,0.00050209,
 0.00002314,-0.00031622,-0.00009631,-0.00004513,-0.00004976,0.00002262,
 0.00002064,0.00011384,0.00004265,0.00126305,0.00942664,0.00459407,-0.0
 5391018,-0.11275483,-0.00387634,0.00213762,0.00260692,-0.00489208,0.00
 082875,0.00055310,-0.00017583,-0.03791857,0.53232391,-0.00045890,-0.00
 036744,-0.00039749,0.00230680,-0.00457567,-0.00031081,-0.00031760,0.00
 014934,-0.00011035,-0.01708954,-0.01122826,0.00870190,0.00003808,0.000
 00502,0.00000282,0.00001439,0.00000166,0.00000411,0.00000956,-0.000068
 73,0.00000932,0.00002080,0.00000185,0.00000752,0.00004035,-0.00010640,
 0.00003367,0.00012026,-0.00006739,0.00014496,-0.00049847,-0.00031578,-
 0.00174668,-0.00046999,0.00027457,0.00006394,-0.00106563,-0.00008924,0
 .00021106,-0.00012876,-0.00016717,-0.00026711,0.00007180,0.00006509,0.
 00007683,-0.00000729,-0.00001082,-0.00007122,0.02068406,0.01299947,0.0
 0092648,0.01782471,-0.00164166,-0.08388002,0.00387223,-0.00385627,-0.0
 0170979,0.00110952,0.00071919,0.00001003,-0.01677593,0.02930380,0.5729
 4925,-0.00003494,-0.00002079,0.00015180,0.00038050,0.00024301,-0.00002
 017,-0.00021384,0.00016413,-0.00018175,-0.00215607,0.00103220,0.002873
 98,-0.00001655,-0.00002010,-0.00001461,0.00000807,-0.00000981,0.000010
 19,0.00002487,-0.00006517,0.00000877,0.00001158,0.00000031,0.00000793,
 0.00003574,-0.00007432,0.00003748,0.00015399,-0.00000490,0.00008598,0.
 00096530,-0.00047079,-0.00170977,0.00080438,0.00025285,-0.00015147,0.0
 0020798,0.00004241,-0.00004256,0.00004736,0.00002732,-0.00001368,-0.00
 002740,-0.00008037,0.00000723,-0.00006033,-0.00003321,-0.00009181,-0.0
 0390221,-0.00383035,-0.00074172,-0.01561641,0.01266730,0.01936415,-0.0
 0021222,0.00070297,0.00124165,-0.00039689,-0.00025572,0.00002466,-0.14
 425477,0.06601831,0.11141624,0.15640952,0.00004867,0.00003330,0.000045
 70,0.00030291,0.00008615,0.00001769,-0.00005021,0.00000804,-0.00004989
 ,-0.00122289,0.00068277,0.00081636,0.00000577,-0.00001073,0.00000756,-
 0.00000157,-0.00000218,0.00000798,0.00000679,-0.00001430,-0.00000839,-
 0.00000007,-0.00000022,0.00000407,0.00000728,-0.00001503,0.00001321,0.
 00004938,0.00001105,-0.00000450,-0.00155274,-0.00297256,-0.00218365,0.
 00025238,-0.00018796,0.00000812,0.00006718,0.00003318,-0.00006168,0.00
 002870,0.00001489,-0.00001122,-0.00001239,-0.00003031,0.00002178,-0.00
 003731,-0.00001032,-0.00002990,-0.00341356,-0.00240741,-0.00052493,-0.
 00983927,0.00880619,0.01456246,-0.00036186,0.00060565,0.00069052,-0.00
 027196,-0.00018666,0.00006297,0.07019906,-0.09613385,-0.08128262,-0.07
 009832,0.10348628,-0.00001464,-0.00000558,0.00000731,0.00020658,0.0000
 7912,-0.00008006,0.00008368,-0.00007740,0.00008301,0.00019817,-0.00049
 583,-0.00040660,0.00002170,0.00000169,0.00002104,-0.00000293,0.0000042
 9,-0.00001818,-0.00000508,0.00003674,0.00000435,-0.00000270,0.00000245
 ,-0.00000629,-0.00001558,0.00002394,-0.00001892,-0.00010372,0.00001362
 ,-0.00004032,-0.00251349,-0.00250816,-0.00147340,-0.00014106,-0.000150
 76,-0.00003864,-0.00003074,-0.00003131,0.00000777,0.00000451,-0.000010
 37,-0.00000062,0.00000233,0.00002207,0.00001939,-0.00000958,0.00001236
 ,0.00001729,0.00006258,-0.00031066,0.00086733,0.00121561,0.00109616,-0
 .00145491,0.00016193,-0.00022765,0.00002612,-0.00002040,0.00008805,-0.
 00002687,0.11492534,-0.07921438,-0.18386157,-0.12381711,0.08907171,0.1
 9590957,-0.00028676,-0.00004623,-0.00009478,0.00067154,-0.00088513,0.0
 0015165,-0.00069731,0.00024245,-0.00033247,-0.00393865,0.00026299,0.00
 224716,0.00000219,-0.00010015,-0.00004165,0.00003050,-0.00003343,0.000
 02123,0.00002632,-0.00011552,0.00002700,0.00003607,0.00000626,0.000007
 33,0.00011872,-0.00012517,0.00010399,0.00057302,0.00012078,0.00037046,
 0.00066653,0.00096032,-0.00059569,0.00018957,0.00007533,0.00002970,-0.
 00022703,-0.00000457,0.00011429,-0.00002340,-0.00005195,-0.00005259,0.
 00002939,-0.00001004,0.00001141,0.00000103,-0.00000294,-0.00002758,0.0
 0039571,-0.00131209,-0.00057831,-0.01514307,-0.00317718,-0.02308347,0.
 00037756,-0.00058185,0.00015004,-0.00002769,0.00006814,0.00002141,-0.1
 0990833,-0.00166100,-0.11164431,0.01133539,-0.00135167,0.01670821,0.12
 001216,0.00000147,0.00018745,-0.00019789,0.00006594,-0.00105423,0.0000
 1529,-0.00023839,-0.00000111,-0.00016482,-0.00176121,-0.00004053,0.000
 93952,-0.00002003,-0.00006124,-0.00002492,0.00000703,-0.00002042,0.000
 02772,0.00000300,-0.00003135,-0.00000340,0.00000576,0.00000150,0.00000
 696,0.00004661,0.00001249,0.00005233,0.00035886,0.00012326,0.00012799,
 -0.00005717,-0.00031351,-0.00008478,-0.00024171,0.00001580,-0.00003664
 ,-0.00025860,-0.00002159,0.00007790,-0.00004383,-0.00005300,-0.0000522
 3,0.00002915,-0.00000216,-0.00001450,0.00001165,-0.00000980,-0.0000067
 4,0.00113982,0.00027190,-0.00077576,-0.01155961,-0.00349666,-0.0158811
 5,-0.00002967,-0.00058063,0.00012929,-0.00000030,0.00003316,0.00001911
 ,-0.00119887,-0.04283208,-0.00634590,-0.00810204,-0.00028765,-0.011664
 03,0.00586822,0.04696704,0.00012831,0.00025591,-0.00014378,-0.00048769
 ,-0.00001422,-0.00005491,0.00004705,-0.00002200,0.00002742,0.00095943,
 0.00150327,-0.00058028,-0.00002429,-0.00000022,-0.00002371,0.00000153,
 -0.00000507,0.00001141,-0.00000375,-0.00000978,-0.00000346,-0.00000086
 ,-0.00000236,0.00000066,0.00000310,0.00000089,0.00000118,0.00004214,-0
 .00001297,0.00002605,-0.00038765,-0.00078938,0.00037884,-0.00025961,0.
 00003278,-0.00002553,-0.00002112,-0.00002205,0.00007136,-0.00000909,-0
 .00001324,0.00001174,0.00000947,-0.00001073,-0.00002666,0.00002258,0.0
 0001465,0.00002604,0.00136933,-0.00122537,-0.00090716,0.00082493,-0.00
 223639,0.00658015,-0.00053619,0.00007531,0.00002748,-0.00006446,-0.000
 04028,0.00002622,-0.11001920,-0.00456849,-0.24508656,-0.01136625,0.001
 62390,-0.01747219,0.12155896,0.00543917,0.26547909,-0.00011504,-0.0002
 6734,0.00018613,-0.00032494,0.00074835,-0.00123844,-0.00058900,0.00027
 206,-0.00026452,-0.00368156,-0.00031313,0.00200210,-0.00001901,-0.0000
 5944,-0.00005266,0.00002416,-0.00002768,0.00002838,0.00003034,-0.00013
 173,0.00001994,0.00003216,0.00000215,0.00000898,0.00010501,-0.00014405
 ,0.00009116,0.00042878,0.00003053,0.00029301,0.00146580,-0.00020715,-0
 .00000800,0.00007730,0.00008974,-0.00002933,-0.00013069,-0.00008960,0.
 00013563,0.00000158,-0.00008400,-0.00001589,-0.00001974,-0.00003983,-0
 .00001036,0.00002116,0.00002161,-0.00002533,-0.00002087,-0.00000586,-0
 .00024989,0.00412073,-0.02961973,0.00714667,-0.00031079,0.00038520,-0.
 00104512,0.00003884,0.00002168,0.00006723,-0.05404893,0.04619891,-0.01
 101379,-0.00377022,0.01701709,-0.00715590,-0.00350258,0.01558821,-0.00
 351995,0.06042704,0.00005435,0.00022716,-0.00016097,-0.00058901,-0.000
 06046,-0.00049314,-0.00013323,0.00005644,0.00003457,-0.00097577,0.0005
 2111,0.00239405,-0.00003267,0.00000014,-0.00005028,0.00001818,-0.00000
 788,0.00000246,0.00001764,-0.00007325,0.00002240,0.00001937,-0.0000005
 7,0.00000002,0.00003452,-0.00011228,0.00001799,0.00015199,-0.00002876,
 0.00018195,0.00016949,-0.00006808,-0.00031416,-0.00004424,-0.00006360,
 0.00008904,-0.00020567,-0.00000656,0.00011375,-0.00002257,-0.00007230,
 -0.00002016,0.00001034,-0.00000425,-0.00001143,0.00003250,0.00000192,-
 0.00002794,0.00082701,-0.00050553,-0.00248517,-0.00308749,-0.01570639,
 0.00255444,-0.00056537,-0.00023296,-0.00018430,-0.00006757,-0.00001574
 ,0.00005110,0.05026460,-0.27557102,0.06460613,0.00236215,-0.01146485,0
 .00414725,0.00062922,0.00060821,-0.00021620,-0.04961482,0.30164815,0.0
 0005848,0.00020268,-0.00012100,-0.00011514,-0.00033547,-0.00004978,0.0
 0021456,-0.00010159,0.00005930,0.00040928,-0.00013576,-0.00086564,-0.0
 0000697,0.00000517,0.00001040,-0.00000996,0.00000253,0.00000006,-0.000
 01128,0.00004763,-0.00001039,-0.00001367,-0.00000085,-0.00000141,-0.00
 003099,0.00007277,-0.00002507,-0.00009152,0.00001759,-0.00010412,-0.00
 085994,0.00019348,-0.00000511,-0.00012108,-0.00013574,-0.00000437,-0.0
 0002447,-0.00006586,0.00003334,-0.00001043,-0.00001912,-0.00000188,0.0
 0000271,-0.00000675,-0.00001769,0.00000095,-0.00000397,0.00001322,0.00
 108555,0.00014120,0.00020268,-0.00061641,0.00073544,-0.00070949,-0.000
 05882,-0.00023120,0.00016400,0.00000405,0.00001700,-0.00002700,-0.0111
 7736,0.06457087,-0.06249786,0.00360462,-0.02240860,0.00788265,-0.00603
 171,0.02810406,-0.00811642,0.01347073,-0.07081134,0.06447661,-0.001516
 39,-0.00301298,0.00363817,-0.00098968,-0.00063217,-0.00019046,-0.00004
 526,-0.00006913,-0.00044986,-0.00202134,-0.00109850,0.00489290,0.00000
 358,0.00002540,0.00004325,-0.00000007,0.00002217,-0.00000562,-0.000026
 57,-0.00002912,0.00000191,0.00000556,0.00000004,0.00002135,0.00001178,
 -0.00006171,0.00000199,-0.00006251,-0.00003709,-0.00003674,0.00025468,
 0.00147278,0.00125675,-0.00030259,0.00016282,0.00039121,0.00012137,0.0
 0030835,-0.00027391,0.00001140,0.00004414,0.00004363,-0.00000627,-0.00
 011150,0.00000036,-0.00003823,-0.00009883,-0.00012890,-0.08990702,-0.0
 1850734,-0.00555430,0.00948301,0.01585151,0.01154988,-0.00329770,-0.02
 429247,-0.01698647,-0.00090243,0.00010979,-0.00236450,-0.00236247,0.00
 173215,0.00093017,-0.00009109,0.00024954,-0.00002016,-0.00080535,0.000
 19991,0.00178228,-0.00004274,0.00093287,0.00004718,0.57339595,-0.00419
 738,0.00413109,-0.00167752,0.00018918,-0.00085367,-0.00005120,0.000276
 43,0.00006014,0.00010651,-0.00084007,0.00344082,-0.00153461,0.00002580
 ,0.00002354,0.00005148,-0.00001492,0.00001321,-0.00000565,-0.00001622,
 0.00011067,-0.00003111,-0.00002047,0.00000113,-0.00001286,-0.00011453,
 0.00003401,-0.00004143,-0.00004496,0.00010568,-0.00013802,-0.00047373,
 0.00018832,0.00045725,-0.00000315,-0.00002497,0.00005549,0.00018368,-0
 .00029622,0.00022353,0.00004148,0.00005182,0.00000118,0.00003805,-0.00
 003832,-0.00007180,0.00000906,0.00005511,0.00001781,-0.02319998,-0.154
 87055,-0.06294394,0.00325978,-0.00543531,-0.01087095,-0.00980410,-0.01
 648972,-0.01450083,0.00286715,-0.00101681,0.00144604,-0.00062803,-0.00
 221449,0.00115427,-0.00038543,-0.00063633,0.00022439,0.00058158,0.0005
 3274,0.00009325,-0.00094587,0.00035755,0.00116426,-0.00637133,0.511439
 61,0.00448911,-0.00185419,0.00334675,-0.00051177,0.00010501,-0.0003855
 5,-0.00001920,-0.00055285,0.00009279,0.00493601,-0.00088441,0.00151145
 ,0.00009282,-0.00000059,0.00007019,-0.00001533,0.00001871,-0.00001606,
 -0.00002994,0.00005309,-0.00001452,0.00000027,0.00000915,0.00000516,0.
 00001021,0.00000736,0.00002244,-0.00011597,0.00008123,-0.00016070,-0.0
 0047202,-0.00094269,-0.00035332,0.00009913,0.00000400,-0.00030322,-0.0
 0032939,0.00040901,-0.00024431,-0.00004335,-0.00004504,0.00001840,0.00
 000234,0.00007972,0.00009750,0.00003738,-0.00005015,-0.00000527,-0.010
 68926,-0.06562401,-0.12850082,-0.00038237,-0.02051385,-0.01685582,-0.0
 0187539,-0.00313057,0.00439687,-0.00042058,0.00330311,-0.00154454,-0.0
 0134595,-0.00063677,-0.00225557,-0.00074898,-0.00017299,-0.00038494,-0
 .00074484,0.00013787,0.00039866,0.00075805,0.00017475,-0.00009155,-0.0
 3284394,-0.02669070,0.53347303,-0.00063476,0.00002730,-0.00056697,0.00
 013879,0.00014255,-0.00002569,-0.00013237,0.00015755,-0.00006714,-0.00
 034037,-0.00031121,-0.00023819,-0.00001639,-0.00002387,-0.00002228,0.0
 0000761,-0.00001014,0.00000425,0.00001088,-0.00002459,0.00000910,0.000
 00599,0.00000021,-0.00000059,0.00002113,-0.00000041,0.00001661,0.00011
 855,0.00002342,0.00009790,0.00006478,-0.00002386,-0.00009298,-0.000003
 78,-0.00000342,0.00001528,0.00003237,-0.00007431,0.00003673,-0.0000003
 0,-0.00000016,0.00000301,-0.00000075,-0.00000206,-0.00001756,0.0000172
 6,0.00001223,0.00000245,-0.00304124,-0.00746542,0.00169255,-0.00045952
 ,0.00081922,0.00119708,0.00036111,-0.00109265,-0.00075102,0.00048937,-
 0.00027326,0.00016523,0.00028822,0.00101653,0.00003379,0.00002767,-0.0
 0008583,-0.00002039,-0.00012009,0.00020530,-0.00025449,-0.00017428,-0.
 00018138,0.00072777,-0.05336743,-0.03660910,0.02624040,0.05527199,-0.0
 0111394,0.00039305,-0.00047615,0.00010703,-0.00018926,0.00008011,-0.00
 004274,0.00031259,-0.00022780,-0.00065541,0.00022037,-0.00015686,-0.00
 007328,0.00001989,-0.00005000,0.00001325,-0.00000506,0.00001179,0.0000
 2076,-0.00007506,0.00001840,0.00000714,-0.00000576,0.00000922,0.000012
 22,-0.00006164,0.00000332,0.00008341,-0.00006200,0.00009070,0.00026695
 ,0.00005356,-0.00019575,-0.00000770,-0.00001228,0.00006576,0.00015225,
 -0.00005375,0.00001526,0.00000278,0.00001118,-0.00000650,-0.00001062,-
 0.00007413,-0.00005572,-0.00002641,-0.00003532,-0.00006873,-0.00552043
 ,-0.02059447,0.01031104,-0.00206419,0.00013671,0.00030303,0.00157898,-
 0.00184482,-0.00213882,0.00025850,-0.00024936,0.00035090,0.00028030,-0
 .00001449,0.00076497,-0.00002129,0.00042598,-0.00007279,0.00033669,-0.
 00018206,0.00015204,0.00065355,0.00033151,-0.00087988,-0.03676851,-0.2
 3002368,0.11352741,0.04273247,0.25131436,-0.00101025,0.00037997,-0.000
 33510,0.00002323,-0.00023890,0.00005315,-0.00013300,0.00008518,-0.0002
 2769,-0.00050202,0.00052993,-0.00027403,-0.00000805,-0.00004138,-0.000
 00842,0.00000963,-0.00001264,0.00000347,0.00000232,-0.00000910,0.00000
 613,0.00000312,0.00000073,0.00000237,0.00003290,0.00002782,0.00001266,
 0.00012130,0.00008830,0.00015613,-0.00001336,0.00007749,0.00007791,-0.
 00001689,-0.00000857,0.00003216,0.00005907,-0.00003009,0.00002540,0.00
 000564,0.00000644,-0.00000881,0.00000784,-0.00003588,-0.00002966,-0.00
 002169,-0.00001742,-0.00002130,-0.00412401,-0.01889931,0.01318965,0.00
 057986,-0.00021551,0.00006358,0.00001937,-0.00148348,-0.00180513,-0.00
 007607,-0.00024358,0.00029812,0.00057778,-0.00152095,0.00008532,-0.000
 20122,-0.00005811,-0.00009698,0.00006993,0.00042120,-0.00040767,0.0005
 5626,0.00027250,-0.00038836,0.02495291,0.11198207,-0.11678751,-0.02623
 766,-0.12167913,0.12647290,0.00014002,-0.00072044,0.00020696,0.0001487
 1,0.00011394,0.00005917,-0.00043727,0.00014132,-0.00035347,-0.00033510
 ,-0.00027867,-0.00022847,0.00000596,-0.00008257,-0.00001685,0.00001972
 ,-0.00002195,0.00000514,0.00000517,-0.00003475,0.00001368,0.00001638,0
 .00000444,0.00000403,0.00008811,0.00003102,0.00005115,0.00030278,0.000
 18189,0.00032556,0.00014703,-0.00005481,-0.00013585,-0.00000518,0.0000
 1346,-0.00000526,-0.00000262,0.00003775,-0.00007404,-0.00000425,0.0000
 0010,0.00000334,0.00000677,-0.00000520,-0.00000018,-0.00000571,-0.0000
 2425,-0.00001490,-0.00427124,-0.00332537,-0.00384228,-0.00132019,-0.00
 011509,0.00169356,0.00086255,-0.00016616,-0.00100154,-0.00006650,0.000
 36345,-0.00040184,0.00064931,0.00090949,0.00102412,0.00016285,0.000019
 71,0.00011509,-0.00024506,0.00009489,0.00003186,-0.00003913,-0.0000512
 0,-0.00029557,-0.21747957,0.04307971,-0.11587368,0.00491145,-0.0008232
 4,0.00400629,0.23572054,0.00037782,-0.00133085,0.00089242,-0.00014500,
 -0.00011200,-0.00006500,-0.00059996,0.00005412,-0.00058492,0.00007381,
 -0.00063386,0.00075417,0.00003438,-0.00012415,0.00002247,0.00001424,-0
 .00002319,0.00000972,-0.00000047,-0.00001895,0.00001222,0.00001681,0.0
 0001210,0.00001351,0.00011193,0.00003316,0.00007771,0.00048205,0.00036
 807,0.00032803,0.00009109,0.00004576,-0.00001514,-0.00005453,0.0000261
 3,0.00001214,0.00003661,0.00008656,-0.00005488,-0.00001693,-0.00000621
 ,0.00000327,-0.00001217,-0.00005403,-0.00002285,-0.00000803,-0.0000422
 1,-0.00004664,-0.02353395,0.00384021,-0.01549487,-0.00029841,0.0002409
 0,0.00021487,0.00070497,-0.00152312,-0.00183021,-0.00041585,0.00031169
 ,-0.00035688,-0.00004161,0.00024424,-0.00071378,-0.00008837,-0.0000881
 2,-0.00001434,0.00028198,0.00035734,-0.00015564,0.00048681,-0.00007826
 ,0.00019599,0.04065166,-0.05325228,0.02661133,0.02328923,-0.00534723,0
 .01501655,-0.04421718,0.05896063,0.00017520,-0.00061950,0.00044424,-0.
 00024730,-0.00013966,-0.00003095,-0.00020431,0.00010136,-0.00037018,0.
 00020383,-0.00022476,0.00068798,-0.00002878,-0.00003671,-0.00002382,0.
 00000666,-0.00001130,0.00001699,0.00001433,-0.00005358,0.00001430,0.00
 000568,0.00000036,0.00001810,0.00006517,0.00001839,0.00003553,0.000172
 50,0.00006035,0.00008521,0.00017481,0.00004349,-0.00007928,-0.00003871
 ,0.00003310,0.00000257,0.00012614,0.00001303,-0.00000289,-0.00000664,0
 .00000264,0.00000310,-0.00001707,-0.00008302,-0.00003987,-0.00002392,-
 0.00002808,-0.00003848,-0.01570977,0.00210958,-0.01066772,-0.00053609,
 -0.00130828,0.00018290,0.00110138,-0.00008440,-0.00150630,-0.00017065,
 0.00003443,-0.00000628,-0.00097758,0.00040281,-0.00074416,0.00021388,-
 0.00004703,0.00039429,0.00149180,-0.00027346,-0.00036667,-0.00000290,0
 .00020909,-0.00000925,-0.11742900,0.02758736,-0.12696785,-0.01418009,0
 .00377138,-0.00997082,0.12910591,-0.02733725,0.13613446,0.00027333,0.0
 0022538,-0.00014018,0.00000271,-0.00003831,-0.00002375,0.00020827,-0.0
 0010126,0.00016271,0.00028095,-0.00023689,-0.00019109,-0.00000032,0.00
 001851,0.00000967,-0.00001523,0.00000495,0.00000428,-0.00000100,0.0000
 3569,-0.00001443,-0.00001325,-0.00000085,-0.00000013,-0.00003915,0.000
 03947,-0.00001528,-0.00009226,-0.00002163,-0.00016811,-0.00000193,0.00
 001272,-0.00002537,0.00001979,-0.00000576,-0.00005706,0.00001571,0.000
 01452,-0.00001784,0.00000968,0.00000352,-0.00000247,0.00000098,0.00000
 892,0.00000893,-0.00000288,0.00000083,0.00000474,0.00570350,-0.0015102
 5,-0.00556911,-0.00028581,-0.00158753,-0.00072988,0.00039487,-0.001309
 15,-0.00148970,0.00020064,-0.00012971,-0.00010627,-0.00047355,0.000270
 30,0.00003788,0.00016761,0.00002453,0.00015660,0.00047123,-0.00009049,
 0.00017410,-0.00000413,0.00005541,-0.00013025,-0.20988435,0.03300316,0
 .12961887,-0.00343734,0.00068797,0.00135636,-0.01894219,0.00285947,0.0
 1674888,0.22543755,0.00005860,-0.00013039,0.00026734,-0.00012636,-0.00
 002810,0.00010131,-0.00020421,0.00004128,-0.00018064,0.00105413,0.0007
 6471,-0.00062901,0.00001838,-0.00002528,0.00000769,0.00000753,-0.00000
 592,-0.00000076,-0.00000035,-0.00001790,0.00000789,0.00000823,0.000002
 61,0.00000221,0.00004738,-0.00000431,0.00001546,0.00006028,0.00006581,
 0.00013060,-0.00008459,-0.00045692,-0.00028065,0.00009477,-0.00004880,
 -0.00009934,-0.00005350,0.00001668,0.00005817,-0.00000963,-0.00001728,
 -0.00001196,-0.00000088,-0.00000080,-0.00000526,0.00000434,0.00000165,
 -0.00000058,0.02069293,-0.00422020,-0.01521771,-0.00228470,-0.00362232
 ,-0.00293774,0.00162798,0.00070016,-0.00069485,-0.00111620,-0.00044966
 ,0.00017463,-0.00059443,-0.00043933,0.00053755,0.00005549,0.00026352,-
 0.00006936,-0.00006840,-0.00010962,0.00019955,0.00001242,0.00033246,-0
 .00029856,0.03020962,-0.05497408,-0.02404766,-0.02212957,0.00585214,0.
 01579835,0.00499372,-0.00181715,-0.00401937,-0.03228143,0.05828037,-0.
 00026134,-0.00003745,0.00012793,-0.00008263,0.00005738,0.00008160,-0.0
 0014207,0.00011457,-0.00013082,0.00112016,0.00030809,-0.00007312,-0.00
 000901,-0.00000465,-0.00001405,0.00000665,-0.00000623,0.00000402,0.000
 01150,-0.00004289,0.00001544,0.00000902,0.00000067,0.00000456,0.000035
 29,-0.00003523,0.00001886,0.00005867,-0.00000720,0.00005140,-0.0001030
 0,-0.00038531,-0.00036010,0.00003010,0.00001130,-0.00011132,-0.0000425
 7,-0.00002150,0.00008072,-0.00001233,-0.00002218,-0.00000721,0.0000015
 0,-0.00000999,-0.00001406,0.00000628,0.00000649,0.00000764,0.01552787,
 -0.00243805,-0.01324122,-0.00146183,-0.00352452,-0.00117619,0.00107353
 ,0.00184584,0.00025377,-0.00080475,-0.00058922,0.00063132,-0.00059285,
 -0.00003337,-0.00019006,0.00013722,-0.00006845,0.00015593,0.00017115,0
 .00002092,0.00010834,-0.00015887,-0.00013009,0.00020369,0.12717410,-0.
 02558682,-0.14911879,0.01231394,-0.00322480,-0.00995923,-0.01435648,0.
 00259463,0.01284049,-0.13963992,0.03118529,0.15984936,-0.28153998,-0.1
 1963980,0.01478969,-0.01241738,-0.00924973,-0.00267556,-0.00364057,0.0
 0124020,-0.00360065,-0.00006435,0.00049689,0.00305646,-0.00001197,-0.0
 0010044,-0.00002048,0.00000278,0.00006145,0.00001449,-0.00034159,0.000
 21254,-0.00019613,0.00002957,0.00002413,0.00001285,-0.00014587,0.00065
 952,0.00000128,0.00015173,0.00104548,-0.00005559,-0.00100642,-0.000511
 80,0.00053109,0.00001225,-0.00014412,-0.00015877,-0.00005744,-0.000158
 24,-0.00144640,0.00051268,0.00091942,0.00068886,0.00017157,0.00013817,
 0.00011966,0.00035174,0.00004808,-0.00021239,0.00144859,-0.00102466,0.
 00031275,0.00049919,0.00084402,0.00005947,0.00035601,0.00121325,0.0021
 1748,0.00013845,0.00040745,-0.00095464,-0.00009523,0.00004647,-0.00008
 455,0.00001013,0.00002066,0.00001115,-0.00001161,-0.00002391,-0.000000
 47,0.00002076,-0.00000865,-0.00002033,-0.00013825,0.00011423,0.0001773
 6,-0.00003854,-0.00006650,-0.00003962,-0.00003333,-0.00008039,-0.00003
 336,0.00000658,0.00000846,-0.00000932,0.29583050,-0.11416887,-0.090583
 58,-0.01354878,0.00235809,0.00281573,0.00314335,0.00929444,-0.00273506
 ,0.00662159,0.00106513,0.00415929,-0.00181927,0.00019686,0.00024535,0.
 00018654,0.00003761,-0.00007920,0.00000489,0.00004136,0.00026506,0.000
 01650,-0.00009396,-0.00002502,-0.00008776,-0.00049640,-0.00044771,-0.0
 0033182,-0.00055162,-0.00120967,0.00005640,0.00030376,0.00012769,-0.00
 051075,0.00007580,0.00011339,0.00007936,0.00224764,-0.00101237,0.00108
 291,0.00000877,0.00011195,-0.00034399,0.00016004,-0.00009419,-0.000389
 98,-0.00018006,0.00017616,0.00026199,0.00117375,-0.00099340,-0.0069806
 1,-0.00023946,-0.00102322,-0.00012165,-0.02532190,-0.01174486,0.001996
 76,0.00136732,-0.00073586,0.00144063,0.00011896,0.00011640,0.00025418,
 -0.00000746,-0.00000853,0.00002875,0.00009336,-0.00001324,-0.00004634,
 0.00002190,-0.00001195,-0.00003597,-0.00088205,-0.00041901,0.00062470,
 -0.00011477,-0.00024098,-0.00019248,-0.00006399,-0.00012931,-0.0001209
 4,0.00004791,0.00004666,0.00002276,0.12350785,0.10332949,0.00947147,-0
 .01587397,-0.04251473,0.02434548,0.01099216,-0.00096449,-0.00779262,0.
 00291252,-0.00565491,0.00212681,-0.00515037,-0.00225380,-0.00024392,-0
 .00022752,-0.00014729,-0.00004048,0.00006264,0.00001380,0.00003000,-0.
 00007794,-0.00010778,0.00004290,0.00003190,0.00004854,0.00019437,0.000
 33306,0.00032925,0.00014094,0.00128906,-0.00023480,0.00163590,0.000999
 04,-0.00053208,-0.00000688,0.00026061,0.00027055,0.00011730,0.00283266
 ,-0.00041114,-0.00042178,-0.00087920,-0.00033007,-0.00024652,0.0001847
 8,0.00037853,0.00003887,-0.00019760,-0.00010921,-0.00101497,-0.0046663
 3,0.00112342,0.00102023,0.00000493,-0.00139071,-0.01538098,-0.00215463
 ,0.00477116,-0.00080411,0.00124600,-0.00083441,-0.00020849,0.00007980,
 -0.00009797,-0.00008467,-0.00004211,-0.00001554,-0.00002835,0.00000687
 ,0.00004037,0.00002667,0.00003369,0.00000045,-0.00044417,-0.00040746,0
 .00055710,-0.00008105,-0.00024239,-0.00015823,-0.00004546,-0.00006664,
 -0.00003561,0.00003783,0.00000741,-0.00003891,-0.01238432,0.00870904,0
 .04829847\\0.,0.00000341,0.00000091,-0.00000264,0.00000031,0.00000094,
 0.00000107,0.00000035,0.00000009,0.00000114,0.00000180,0.00000110,-0.0
 0000017,0.00000003,0.00000046,0.00000028,-0.00000027,-0.00000030,0.000
 00013,-0.00000078,0.00000063,-0.00000010,-0.00000003,-0.00000003,-0.00
 000193,0.00000078,-0.00000108,0.00000046,-0.00000002,-0.00000135,-0.00
 000057,-0.00000081,-0.00000061,-0.00000073,-0.00000018,-0.00000041,0.0
 0000052,-0.00000044,0.00000098,-0.00000068,0.00000040,0.00000024,-0.00
 000165,-0.00000057,0.00000102,-0.00000036,0.00000026,0.00000014,0.0000
 0062,0.00000022,-0.00000058,-0.00000043,-0.00000124,-0.00000009,-0.000
 00089,-0.00000075,-0.00000125,0.00000058,0.00000009,0.00000068,0.00000
 014,-0.00000049,-0.00000027,-0.00000041,0.00000003,-0.00000105,0.00000
 046,-0.00000087,-0.00000075,0.00000028,-0.00000010,0.00000022,0.000000
 78,-0.00000021,-0.00000021,0.00000040,0.00000014,-0.00000006,0.0000012
 0,0.00000022,-0.00000061,0.00000111,-0.00000015,0.00000039,0.00000139,
 -0.00000116,0.00000085\\\@
 The archive entry for this job was punched.


 IF I AM NOT FOR MYSELF, WHO WILL BE?
 BUT IF I AM ONLY FOR MYSELF, WHAT AM I?
 THOUGH A SEEKER SINCE MY BIRTH,
 HERE IS ALL I'VE LEARNED ON EARTH,
 THIS IS THE GIST OF WHAT I KNOW:
 GIVE ADVICE AND BUY A FOE.

 PRESSED FOR RULES AND VERITIES,
 ALL I RECOLLECT ARE THESE:
 FEED A COLD TO STARVE A FEVER,
 ARGUE WITH NO TRUE-BELIEVER.
 THINK-TOO-LONG IS NEVER-ACT,
 SCRATCH A MYTH AND FIND A FACT.

 STITCH IN TIME SAVES TWENTY STITCHES,
 GIVE THE RICH TO PLEASE THEM, RICHES.
 GIVE TO LOVE YOU HEARTH AND HALL,
 BUT DO NOT GIVE ADVICE AT ALL.

                                  -- HILLEL
 Job cpu time:       0 days  1 hours  1 minutes 21.7 seconds.
 Elapsed time:       0 days  0 hours  4 minutes  6.0 seconds.
 File lengths (MBytes):  RWF=    570 Int=      0 D2E=      0 Chk=     12 Scr=      1
 Normal termination of Gaussian 16 at Tue May  5 15:19:48 2026.
13434.87user 62.15system 14:54.17elapsed 1509%CPU (0avgtext+0avgdata 16971832maxresident)k
16inputs+5669832outputs (3831major+12320956minor)pagefaults 0swaps
