 Entering Gaussian System, Link 0=g16
 Initial command:
 /cm/shared/apps/spack/cpu/opt/spack/linux-centos8-zen/gcc-8.3.1/gaussian-16.C.01-po5bqktfeugvmjyga3v7eigbecnokxng/g16/l1.exe "/scratch/jcuzick/job_48160443/Gau-3036369.inp" -scrdir="/scratch/jcuzick/job_48160443/"
 Entering Link 1 = /cm/shared/apps/spack/cpu/opt/spack/linux-centos8-zen/gcc-8.3.1/gaussian-16.C.01-po5bqktfeugvmjyga3v7eigbecnokxng/g16/l1.exe PID=   3036371.
  
 Copyright (c) 1988-2019, Gaussian, Inc.  All Rights Reserved.
  
 This is part of the Gaussian(R) 16 program.  It is based on
 the Gaussian(R) 09 system (copyright 2009, Gaussian, Inc.),
 the Gaussian(R) 03 system (copyright 2003, Gaussian, Inc.),
 the Gaussian(R) 98 system (copyright 1998, Gaussian, Inc.),
 the Gaussian(R) 94 system (copyright 1995, Gaussian, Inc.),
 the Gaussian 92(TM) system (copyright 1992, Gaussian, Inc.),
 the Gaussian 90(TM) system (copyright 1990, Gaussian, Inc.),
 the Gaussian 88(TM) system (copyright 1988, Gaussian, Inc.),
 the Gaussian 86(TM) system (copyright 1986, Carnegie Mellon
 University), and the Gaussian 82(TM) system (copyright 1983,
 Carnegie Mellon University). Gaussian is a federally registered
 trademark of Gaussian, Inc.
  
 This software contains proprietary and confidential information,
 including trade secrets, belonging to Gaussian, Inc.
  
 This software is provided under written license and may be
 used, copied, transmitted, or stored only in accord with that
 written license.
  
 The following legend is applicable only to US Government
 contracts under FAR:
  
                    RESTRICTED RIGHTS LEGEND
  
 Use, reproduction and disclosure by the US Government is
 subject to restrictions as set forth in subparagraphs (a)
 and (c) of the Commercial Computer Software - Restricted
 Rights clause in FAR 52.227-19.
  
 Gaussian, Inc.
 340 Quinnipiac St., Bldg. 40, Wallingford CT 06492
  
  
 ---------------------------------------------------------------
 Warning -- This program may not be used in any manner that
 competes with the business of Gaussian, Inc. or will provide
 assistance to any competitor of Gaussian, Inc.  The licensee
 of this program is prohibited from giving any competitor of
 Gaussian, Inc. access to this program.  By using this program,
 the user acknowledges that Gaussian, Inc. is engaged in the
 business of creating and licensing software in the field of
 computational chemistry and represents and warrants to the
 licensee that it is not a competitor of Gaussian, Inc. and that
 it will not use this program in any manner prohibited above.
 ---------------------------------------------------------------
  

 Cite this work as:
 Gaussian 16, Revision C.01,
 M. J. Frisch, G. W. Trucks, H. B. Schlegel, G. E. Scuseria, 
 M. A. Robb, J. R. Cheeseman, G. Scalmani, V. Barone, 
 G. A. Petersson, H. Nakatsuji, X. Li, M. Caricato, A. V. Marenich, 
 J. Bloino, B. G. Janesko, R. Gomperts, B. Mennucci, H. P. Hratchian, 
 J. V. Ortiz, A. F. Izmaylov, J. L. Sonnenberg, D. Williams-Young, 
 F. Ding, F. Lipparini, F. Egidi, J. Goings, B. Peng, A. Petrone, 
 T. Henderson, D. Ranasinghe, V. G. Zakrzewski, J. Gao, N. Rega, 
 G. Zheng, W. Liang, M. Hada, M. Ehara, K. Toyota, R. Fukuda, 
 J. Hasegawa, M. Ishida, T. Nakajima, Y. Honda, O. Kitao, H. Nakai, 
 T. Vreven, K. Throssell, J. A. Montgomery, Jr., J. E. Peralta, 
 F. Ogliaro, M. J. Bearpark, J. J. Heyd, E. N. Brothers, K. N. Kudin, 
 V. N. Staroverov, T. A. Keith, R. Kobayashi, J. Normand, 
 K. Raghavachari, A. P. Rendell, J. C. Burant, S. S. Iyengar, 
 J. Tomasi, M. Cossi, J. M. Millam, M. Klene, C. Adamo, R. Cammi, 
 J. W. Ochterski, R. L. Martin, K. Morokuma, O. Farkas, 
 J. B. Foresman, and D. J. Fox, Gaussian, Inc., Wallingford CT, 2019.
 
 ******************************************
 Gaussian 16:  ES64L-G16RevC.01  3-Jul-2019
                17-Apr-2026 
 ******************************************
 %mem=16GB
 %nprocshared=16
 Will use up to   16 processors via shared memory.
 ----------------------------------------------------------------------
 # opt=(calcfc,ts,modredundant,noeigen) freq=noraman ub3lyp/6-31g(d,p) 
 nosymm guess=mix empiricaldispersion=gd3
 ----------------------------------------------------------------------
 1/5=1,10=4,11=1,18=120,26=3,38=1/1,3;
 2/9=110,12=2,15=1,17=6,18=5,40=1/2;
 3/5=1,6=6,7=101,11=2,25=1,30=1,71=2,74=-5,116=2,124=31,140=1/1,2,3;
 4/13=-1/1;
 5/5=2,38=5/2;
 8/6=4,10=90,11=11/1;
 11/6=1,8=1,9=11,15=111,16=1,31=1/1,2,10;
 10/6=1,13=1,31=1/2;
 6/7=2,8=2,9=2,10=2,28=1/1;
 7/10=1,25=1,30=1/1,2,3,16;
 1/5=1,10=4,11=1,18=20,26=3/3(2);
 2/9=110,15=1/2;
 99//99;
 2/9=110,15=1/2;
 3/5=1,6=6,7=101,11=2,25=1,30=1,71=1,74=-5,116=2,124=31/1,2,3;
 4/5=5,16=3,69=1/1;
 5/5=2,38=5/2;
 7/30=1/1,2,3,16;
 1/5=1,11=1,18=20,26=3/3(-5);
 2/9=110,15=1/2;
 6/7=2,8=2,9=2,10=2,19=2,28=1/1;
 99/9=1/99;
 -------------------------------
 Radical-Radical Coupling (TS-B)
 -------------------------------
 Symbolic Z-matrix:
 Charge =  0 Multiplicity = 1
 C                    -3.85704   2.23023  -0.32506 
 C                    -2.52143   2.26138   0.05569 
 C                    -1.77624   1.07245   0.20108 
 C                    -2.42024  -0.14632  -0.08571 
 C                    -3.75993  -0.17389  -0.46655 
 C                    -4.48869   1.01035  -0.58167 
 H                    -4.40256   3.16354  -0.42852 
 H                    -2.04113   3.21008   0.24807 
 H                    -1.86394  -1.07415  -0.0526 
 H                    -4.2297   -1.12661  -0.69197 
 H                    -5.53202   0.98484  -0.88166 
 C                     0.45996  -0.09148   0.75196 
 C                     1.70557  -0.22747   0.11376 
 C                     0.01591  -1.14789   1.57241 
 C                     2.47545  -1.37773   0.29099 
 H                     2.07479   0.56059  -0.53322 
 C                     0.7843   -2.2936    1.7444 
 H                    -0.93256  -1.05779   2.09148 
 C                     2.02248  -2.41422   1.10536 
 H                     3.43159  -1.46061  -0.21689 
 H                     0.42189  -3.09124   2.3861 
 H                     2.62447  -3.30706   1.24349 
 S                     0.45915   2.71607  -1.58033 
 O                     1.89892   2.94259  -1.75659 
 O                    -0.27955   1.74345  -2.38401 
 C                    -0.37035   4.29305  -1.66108 
 C                    -1.58177   4.39347  -2.3434 
 C                     0.19304   5.38617  -1.00136 
 C                    -2.23936   5.62252  -2.36054 
 H                    -1.99819   3.52014  -2.83179 
 C                    -0.48671   6.59923  -1.01967 
 H                     1.11969   5.29378  -0.4484 
 C                    -1.7067    6.73824  -1.70022 
 H                    -3.18431   5.71323  -2.88901 
 H                    -0.06896   7.44098  -0.47598 
 C                    -2.41684   8.06922  -1.72475 
 H                    -1.94541   8.74778  -2.4458 
 H                    -3.4669    7.96173  -2.00988 
 H                    -2.37523   8.55802  -0.74643 
 N                     0.33064   2.26977   0.07594 
 H                     1.21602   2.47511   0.5362 
 C                    -0.34392   1.14733   0.56845 
 C                     1.14251   2.14971   2.90984 
 C                    -1.19336   2.94725   2.72878 
 C                     1.6031    3.41392   2.62029 
 C                    -0.7893    4.21833   2.45604 
 H                    -2.25301   2.72326   2.81376 
 C                     0.65126   4.50517   2.31823 
 C                    -0.26551   1.86255   2.79395 
 H                    -0.61872   0.91594   3.18635 
 C                     3.06743   3.76543   2.65068 
 H                     3.20714   4.78463   2.28862 
 H                     3.47062   3.70313   3.66985 
 H                     3.66396   3.08427   2.03299 
 C                    -1.7387    5.36367   2.26498 
 H                    -1.43756   6.22236   2.87307 
 H                    -1.71975   5.70777   1.22468 
 H                    -2.76319   5.07913   2.52101 
 C                     2.10247   1.05244   3.30229 
 H                     1.58194   0.12374   3.53999 
 H                     2.81266   0.83065   2.49795 
 H                     2.69213   1.35332   4.1757 
 O                     1.03936   5.63801   1.97844 
 
 Add virtual bond connecting atoms C43        and H41        Dist= 4.53D+00.
 Add virtual bond connecting atoms C45        and H41        Dist= 4.38D+00.
 Add virtual bond connecting atoms C49        and C42        Dist= 4.42D+00.
 Add virtual bond connecting atoms H50        and H18        Dist= 4.31D+00.
 The following ModRedundant input section has been read:
 B      42      49 F                                                           
 

 GradGradGradGradGradGradGradGradGradGradGradGradGradGradGradGradGradGrad
 Berny optimization.
 Initialization pass.
                           ----------------------------
                           !    Initial Parameters    !
                           ! (Angstroms and Degrees)  !
 --------------------------                            --------------------------
 ! Name  Definition              Value          Derivative Info.                !
 --------------------------------------------------------------------------------
 ! R1    R(1,2)                  1.3892         calculate D2E/DX2 analytically  !
 ! R2    R(1,6)                  1.3975         calculate D2E/DX2 analytically  !
 ! R3    R(1,7)                  1.086          calculate D2E/DX2 analytically  !
 ! R4    R(2,3)                  1.4107         calculate D2E/DX2 analytically  !
 ! R5    R(2,8)                  1.0806         calculate D2E/DX2 analytically  !
 ! R6    R(3,4)                  1.408          calculate D2E/DX2 analytically  !
 ! R7    R(3,42)                 1.4806         calculate D2E/DX2 analytically  !
 ! R8    R(4,5)                  1.393          calculate D2E/DX2 analytically  !
 ! R9    R(4,9)                  1.0823         calculate D2E/DX2 analytically  !
 ! R10   R(5,6)                  1.3953         calculate D2E/DX2 analytically  !
 ! R11   R(5,10)                 1.0859         calculate D2E/DX2 analytically  !
 ! R12   R(6,11)                 1.0859         calculate D2E/DX2 analytically  !
 ! R13   R(12,13)                1.4062         calculate D2E/DX2 analytically  !
 ! R14   R(12,14)                1.4094         calculate D2E/DX2 analytically  !
 ! R15   R(12,42)                1.4881         calculate D2E/DX2 analytically  !
 ! R16   R(13,15)                1.3954         calculate D2E/DX2 analytically  !
 ! R17   R(13,16)                1.0844         calculate D2E/DX2 analytically  !
 ! R18   R(14,17)                1.3902         calculate D2E/DX2 analytically  !
 ! R19   R(14,18)                1.085          calculate D2E/DX2 analytically  !
 ! R20   R(15,19)                1.3938         calculate D2E/DX2 analytically  !
 ! R21   R(15,20)                1.0858         calculate D2E/DX2 analytically  !
 ! R22   R(17,19)                1.3986         calculate D2E/DX2 analytically  !
 ! R23   R(17,21)                1.086          calculate D2E/DX2 analytically  !
 ! R24   R(18,50)                2.2788         calculate D2E/DX2 analytically  !
 ! R25   R(19,22)                1.0856         calculate D2E/DX2 analytically  !
 ! R26   R(23,24)                1.4681         calculate D2E/DX2 analytically  !
 ! R27   R(23,25)                1.462          calculate D2E/DX2 analytically  !
 ! R28   R(23,26)                1.7837         calculate D2E/DX2 analytically  !
 ! R29   R(23,40)                1.7202         calculate D2E/DX2 analytically  !
 ! R30   R(26,27)                1.394          calculate D2E/DX2 analytically  !
 ! R31   R(26,28)                1.3955         calculate D2E/DX2 analytically  !
 ! R32   R(27,29)                1.394          calculate D2E/DX2 analytically  !
 ! R33   R(27,30)                1.0838         calculate D2E/DX2 analytically  !
 ! R34   R(28,31)                1.3906         calculate D2E/DX2 analytically  !
 ! R35   R(28,32)                1.083          calculate D2E/DX2 analytically  !
 ! R36   R(29,33)                1.4016         calculate D2E/DX2 analytically  !
 ! R37   R(29,34)                1.0865         calculate D2E/DX2 analytically  !
 ! R38   R(31,33)                1.4039         calculate D2E/DX2 analytically  !
 ! R39   R(31,35)                1.0857         calculate D2E/DX2 analytically  !
 ! R40   R(33,36)                1.5088         calculate D2E/DX2 analytically  !
 ! R41   R(36,37)                1.0966         calculate D2E/DX2 analytically  !
 ! R42   R(36,38)                1.0934         calculate D2E/DX2 analytically  !
 ! R43   R(36,39)                1.0944         calculate D2E/DX2 analytically  !
 ! R44   R(40,41)                1.0188         calculate D2E/DX2 analytically  !
 ! R45   R(40,42)                1.3991         calculate D2E/DX2 analytically  !
 ! R46   R(41,43)                2.397          calculate D2E/DX2 analytically  !
 ! R47   R(41,45)                2.3183         calculate D2E/DX2 analytically  !
 ! R48   R(42,49)                2.3389         frozen, calculate D2E/DX2 analyt!
 ! R49   R(43,45)                1.3763         calculate D2E/DX2 analytically  !
 ! R50   R(43,49)                1.4417         calculate D2E/DX2 analytically  !
 ! R51   R(43,59)                1.5098         calculate D2E/DX2 analytically  !
 ! R52   R(44,46)                1.3614         calculate D2E/DX2 analytically  !
 ! R53   R(44,47)                1.0864         calculate D2E/DX2 analytically  !
 ! R54   R(44,49)                1.4289         calculate D2E/DX2 analytically  !
 ! R55   R(45,48)                1.4792         calculate D2E/DX2 analytically  !
 ! R56   R(45,51)                1.5062         calculate D2E/DX2 analytically  !
 ! R57   R(46,48)                1.4753         calculate D2E/DX2 analytically  !
 ! R58   R(46,55)                1.4999         calculate D2E/DX2 analytically  !
 ! R59   R(48,63)                1.2448         calculate D2E/DX2 analytically  !
 ! R60   R(49,50)                1.0839         calculate D2E/DX2 analytically  !
 ! R61   R(51,52)                1.0906         calculate D2E/DX2 analytically  !
 ! R62   R(51,53)                1.0978         calculate D2E/DX2 analytically  !
 ! R63   R(51,54)                1.0961         calculate D2E/DX2 analytically  !
 ! R64   R(55,56)                1.0944         calculate D2E/DX2 analytically  !
 ! R65   R(55,57)                1.0959         calculate D2E/DX2 analytically  !
 ! R66   R(55,58)                1.0937         calculate D2E/DX2 analytically  !
 ! R67   R(59,60)                1.0908         calculate D2E/DX2 analytically  !
 ! R68   R(59,61)                1.0957         calculate D2E/DX2 analytically  !
 ! R69   R(59,62)                1.0959         calculate D2E/DX2 analytically  !
 ! A1    A(2,1,6)              120.2963         calculate D2E/DX2 analytically  !
 ! A2    A(2,1,7)              119.3268         calculate D2E/DX2 analytically  !
 ! A3    A(6,1,7)              120.3752         calculate D2E/DX2 analytically  !
 ! A4    A(1,2,3)              121.147          calculate D2E/DX2 analytically  !
 ! A5    A(1,2,8)              119.7234         calculate D2E/DX2 analytically  !
 ! A6    A(3,2,8)              119.1294         calculate D2E/DX2 analytically  !
 ! A7    A(2,3,4)              117.8359         calculate D2E/DX2 analytically  !
 ! A8    A(2,3,42)             119.603          calculate D2E/DX2 analytically  !
 ! A9    A(4,3,42)             122.4661         calculate D2E/DX2 analytically  !
 ! A10   A(3,4,5)              120.8433         calculate D2E/DX2 analytically  !
 ! A11   A(3,4,9)              120.0488         calculate D2E/DX2 analytically  !
 ! A12   A(5,4,9)              119.058          calculate D2E/DX2 analytically  !
 ! A13   A(4,5,6)              120.5349         calculate D2E/DX2 analytically  !
 ! A14   A(4,5,10)             119.3509         calculate D2E/DX2 analytically  !
 ! A15   A(6,5,10)             120.1044         calculate D2E/DX2 analytically  !
 ! A16   A(1,6,5)              119.3183         calculate D2E/DX2 analytically  !
 ! A17   A(1,6,11)             120.3653         calculate D2E/DX2 analytically  !
 ! A18   A(5,6,11)             120.3105         calculate D2E/DX2 analytically  !
 ! A19   A(13,12,14)           118.0871         calculate D2E/DX2 analytically  !
 ! A20   A(13,12,42)           120.2015         calculate D2E/DX2 analytically  !
 ! A21   A(14,12,42)           121.7066         calculate D2E/DX2 analytically  !
 ! A22   A(12,13,15)           120.7164         calculate D2E/DX2 analytically  !
 ! A23   A(12,13,16)           120.1391         calculate D2E/DX2 analytically  !
 ! A24   A(15,13,16)           119.1412         calculate D2E/DX2 analytically  !
 ! A25   A(12,14,17)           121.0382         calculate D2E/DX2 analytically  !
 ! A26   A(12,14,18)           119.4522         calculate D2E/DX2 analytically  !
 ! A27   A(17,14,18)           119.5008         calculate D2E/DX2 analytically  !
 ! A28   A(13,15,19)           120.5234         calculate D2E/DX2 analytically  !
 ! A29   A(13,15,20)           119.2968         calculate D2E/DX2 analytically  !
 ! A30   A(19,15,20)           120.1791         calculate D2E/DX2 analytically  !
 ! A31   A(14,17,19)           120.2571         calculate D2E/DX2 analytically  !
 ! A32   A(14,17,21)           119.6014         calculate D2E/DX2 analytically  !
 ! A33   A(19,17,21)           120.1389         calculate D2E/DX2 analytically  !
 ! A34   A(14,18,50)           100.4508         calculate D2E/DX2 analytically  !
 ! A35   A(15,19,17)           119.3772         calculate D2E/DX2 analytically  !
 ! A36   A(15,19,22)           120.3777         calculate D2E/DX2 analytically  !
 ! A37   A(17,19,22)           120.2451         calculate D2E/DX2 analytically  !
 ! A38   A(24,23,25)           122.1506         calculate D2E/DX2 analytically  !
 ! A39   A(24,23,26)           108.3142         calculate D2E/DX2 analytically  !
 ! A40   A(24,23,40)           103.2325         calculate D2E/DX2 analytically  !
 ! A41   A(25,23,26)           109.1659         calculate D2E/DX2 analytically  !
 ! A42   A(25,23,40)           108.5988         calculate D2E/DX2 analytically  !
 ! A43   A(26,23,40)           103.7823         calculate D2E/DX2 analytically  !
 ! A44   A(23,26,27)           119.3401         calculate D2E/DX2 analytically  !
 ! A45   A(23,26,28)           118.9065         calculate D2E/DX2 analytically  !
 ! A46   A(27,26,28)           121.7224         calculate D2E/DX2 analytically  !
 ! A47   A(26,27,29)           118.6506         calculate D2E/DX2 analytically  !
 ! A48   A(26,27,30)           119.7639         calculate D2E/DX2 analytically  !
 ! A49   A(29,27,30)           121.5781         calculate D2E/DX2 analytically  !
 ! A50   A(26,28,31)           118.6663         calculate D2E/DX2 analytically  !
 ! A51   A(26,28,32)           121.3287         calculate D2E/DX2 analytically  !
 ! A52   A(31,28,32)           119.9573         calculate D2E/DX2 analytically  !
 ! A53   A(27,29,33)           121.1151         calculate D2E/DX2 analytically  !
 ! A54   A(27,29,34)           119.3311         calculate D2E/DX2 analytically  !
 ! A55   A(33,29,34)           119.5522         calculate D2E/DX2 analytically  !
 ! A56   A(28,31,33)           121.1672         calculate D2E/DX2 analytically  !
 ! A57   A(28,31,35)           118.7929         calculate D2E/DX2 analytically  !
 ! A58   A(33,31,35)           120.0251         calculate D2E/DX2 analytically  !
 ! A59   A(29,33,31)           118.6726         calculate D2E/DX2 analytically  !
 ! A60   A(29,33,36)           121.0434         calculate D2E/DX2 analytically  !
 ! A61   A(31,33,36)           120.2819         calculate D2E/DX2 analytically  !
 ! A62   A(33,36,37)           110.7448         calculate D2E/DX2 analytically  !
 ! A63   A(33,36,38)           111.6866         calculate D2E/DX2 analytically  !
 ! A64   A(33,36,39)           111.1964         calculate D2E/DX2 analytically  !
 ! A65   A(37,36,38)           107.5908         calculate D2E/DX2 analytically  !
 ! A66   A(37,36,39)           107.1617         calculate D2E/DX2 analytically  !
 ! A67   A(38,36,39)           108.2726         calculate D2E/DX2 analytically  !
 ! A68   A(23,40,41)           108.5286         calculate D2E/DX2 analytically  !
 ! A69   A(23,40,42)           125.6697         calculate D2E/DX2 analytically  !
 ! A70   A(41,40,42)           114.9404         calculate D2E/DX2 analytically  !
 ! A71   A(40,41,43)           113.1641         calculate D2E/DX2 analytically  !
 ! A72   A(40,41,45)           129.261          calculate D2E/DX2 analytically  !
 ! A73   A(3,42,12)            120.7358         calculate D2E/DX2 analytically  !
 ! A74   A(3,42,40)            114.8126         calculate D2E/DX2 analytically  !
 ! A75   A(3,42,49)            106.498          calculate D2E/DX2 analytically  !
 ! A76   A(12,42,40)           116.7962         calculate D2E/DX2 analytically  !
 ! A77   A(12,42,49)            96.8411         calculate D2E/DX2 analytically  !
 ! A78   A(40,42,49)            94.2127         calculate D2E/DX2 analytically  !
 ! A79   A(41,43,49)            88.7044         calculate D2E/DX2 analytically  !
 ! A80   A(41,43,59)           109.6679         calculate D2E/DX2 analytically  !
 ! A81   A(45,43,49)           119.5312         calculate D2E/DX2 analytically  !
 ! A82   A(45,43,59)           120.6287         calculate D2E/DX2 analytically  !
 ! A83   A(49,43,59)           119.8089         calculate D2E/DX2 analytically  !
 ! A84   A(46,44,47)           119.846          calculate D2E/DX2 analytically  !
 ! A85   A(46,44,49)           121.6811         calculate D2E/DX2 analytically  !
 ! A86   A(47,44,49)           118.2476         calculate D2E/DX2 analytically  !
 ! A87   A(41,45,48)            90.4431         calculate D2E/DX2 analytically  !
 ! A88   A(41,45,51)           105.96           calculate D2E/DX2 analytically  !
 ! A89   A(43,45,48)           120.3482         calculate D2E/DX2 analytically  !
 ! A90   A(43,45,51)           122.3756         calculate D2E/DX2 analytically  !
 ! A91   A(48,45,51)           117.2281         calculate D2E/DX2 analytically  !
 ! A92   A(44,46,48)           119.3451         calculate D2E/DX2 analytically  !
 ! A93   A(44,46,55)           123.4101         calculate D2E/DX2 analytically  !
 ! A94   A(48,46,55)           117.2393         calculate D2E/DX2 analytically  !
 ! A95   A(45,48,46)           117.7634         calculate D2E/DX2 analytically  !
 ! A96   A(45,48,63)           121.7695         calculate D2E/DX2 analytically  !
 ! A97   A(46,48,63)           120.4579         calculate D2E/DX2 analytically  !
 ! A98   A(42,49,43)            99.7955         calculate D2E/DX2 analytically  !
 ! A99   A(42,49,44)            99.6117         calculate D2E/DX2 analytically  !
 ! A100  A(42,49,50)            93.812          calculate D2E/DX2 analytically  !
 ! A101  A(43,49,44)           119.1207         calculate D2E/DX2 analytically  !
 ! A102  A(43,49,50)           117.5887         calculate D2E/DX2 analytically  !
 ! A103  A(44,49,50)           117.8975         calculate D2E/DX2 analytically  !
 ! A104  A(18,50,49)           128.8572         calculate D2E/DX2 analytically  !
 ! A105  A(45,51,52)           109.6292         calculate D2E/DX2 analytically  !
 ! A106  A(45,51,53)           111.2564         calculate D2E/DX2 analytically  !
 ! A107  A(45,51,54)           111.8818         calculate D2E/DX2 analytically  !
 ! A108  A(52,51,53)           108.3126         calculate D2E/DX2 analytically  !
 ! A109  A(52,51,54)           108.9034         calculate D2E/DX2 analytically  !
 ! A110  A(53,51,54)           106.7407         calculate D2E/DX2 analytically  !
 ! A111  A(46,55,56)           110.7437         calculate D2E/DX2 analytically  !
 ! A112  A(46,55,57)           110.4711         calculate D2E/DX2 analytically  !
 ! A113  A(46,55,58)           111.3739         calculate D2E/DX2 analytically  !
 ! A114  A(56,55,57)           106.041          calculate D2E/DX2 analytically  !
 ! A115  A(56,55,58)           109.379          calculate D2E/DX2 analytically  !
 ! A116  A(57,55,58)           108.6693         calculate D2E/DX2 analytically  !
 ! A117  A(43,59,60)           111.8373         calculate D2E/DX2 analytically  !
 ! A118  A(43,59,61)           111.6172         calculate D2E/DX2 analytically  !
 ! A119  A(43,59,62)           110.4704         calculate D2E/DX2 analytically  !
 ! A120  A(60,59,61)           107.273          calculate D2E/DX2 analytically  !
 ! A121  A(60,59,62)           108.4709         calculate D2E/DX2 analytically  !
 ! A122  A(61,59,62)           106.9704         calculate D2E/DX2 analytically  !
 ! D1    D(6,1,2,3)             -0.4355         calculate D2E/DX2 analytically  !
 ! D2    D(6,1,2,8)            179.7605         calculate D2E/DX2 analytically  !
 ! D3    D(7,1,2,3)           -179.9696         calculate D2E/DX2 analytically  !
 ! D4    D(7,1,2,8)              0.2264         calculate D2E/DX2 analytically  !
 ! D5    D(2,1,6,5)             -0.7396         calculate D2E/DX2 analytically  !
 ! D6    D(2,1,6,11)          -179.8538         calculate D2E/DX2 analytically  !
 ! D7    D(7,1,6,5)            178.7895         calculate D2E/DX2 analytically  !
 ! D8    D(7,1,6,11)            -0.3246         calculate D2E/DX2 analytically  !
 ! D9    D(1,2,3,4)              1.6048         calculate D2E/DX2 analytically  !
 ! D10   D(1,2,3,42)           178.1497         calculate D2E/DX2 analytically  !
 ! D11   D(8,2,3,4)           -178.59           calculate D2E/DX2 analytically  !
 ! D12   D(8,2,3,42)            -2.0451         calculate D2E/DX2 analytically  !
 ! D13   D(2,3,4,5)             -1.6376         calculate D2E/DX2 analytically  !
 ! D14   D(2,3,4,9)            175.7682         calculate D2E/DX2 analytically  !
 ! D15   D(42,3,4,5)          -178.0768         calculate D2E/DX2 analytically  !
 ! D16   D(42,3,4,9)            -0.6711         calculate D2E/DX2 analytically  !
 ! D17   D(2,3,42,12)          178.9135         calculate D2E/DX2 analytically  !
 ! D18   D(2,3,42,40)          -32.5757         calculate D2E/DX2 analytically  !
 ! D19   D(2,3,42,49)           70.2119         calculate D2E/DX2 analytically  !
 ! D20   D(4,3,42,12)           -4.708          calculate D2E/DX2 analytically  !
 ! D21   D(4,3,42,40)          143.8028         calculate D2E/DX2 analytically  !
 ! D22   D(4,3,42,49)         -113.4095         calculate D2E/DX2 analytically  !
 ! D23   D(3,4,5,6)              0.5092         calculate D2E/DX2 analytically  !
 ! D24   D(3,4,5,10)           179.3766         calculate D2E/DX2 analytically  !
 ! D25   D(9,4,5,6)           -176.9219         calculate D2E/DX2 analytically  !
 ! D26   D(9,4,5,10)             1.9455         calculate D2E/DX2 analytically  !
 ! D27   D(4,5,6,1)              0.7037         calculate D2E/DX2 analytically  !
 ! D28   D(4,5,6,11)           179.8183         calculate D2E/DX2 analytically  !
 ! D29   D(10,5,6,1)          -178.1553         calculate D2E/DX2 analytically  !
 ! D30   D(10,5,6,11)            0.9594         calculate D2E/DX2 analytically  !
 ! D31   D(14,12,13,15)          0.0191         calculate D2E/DX2 analytically  !
 ! D32   D(14,12,13,16)        179.3623         calculate D2E/DX2 analytically  !
 ! D33   D(42,12,13,15)        179.2357         calculate D2E/DX2 analytically  !
 ! D34   D(42,12,13,16)         -1.4212         calculate D2E/DX2 analytically  !
 ! D35   D(13,12,14,17)         -0.1575         calculate D2E/DX2 analytically  !
 ! D36   D(13,12,14,18)        178.7636         calculate D2E/DX2 analytically  !
 ! D37   D(42,12,14,17)       -179.3616         calculate D2E/DX2 analytically  !
 ! D38   D(42,12,14,18)         -0.4405         calculate D2E/DX2 analytically  !
 ! D39   D(13,12,42,3)         130.4896         calculate D2E/DX2 analytically  !
 ! D40   D(13,12,42,40)        -17.4267         calculate D2E/DX2 analytically  !
 ! D41   D(13,12,42,49)       -115.6759         calculate D2E/DX2 analytically  !
 ! D42   D(14,12,42,3)         -50.3228         calculate D2E/DX2 analytically  !
 ! D43   D(14,12,42,40)        161.7608         calculate D2E/DX2 analytically  !
 ! D44   D(14,12,42,49)         63.5116         calculate D2E/DX2 analytically  !
 ! D45   D(12,13,15,19)         -0.0007         calculate D2E/DX2 analytically  !
 ! D46   D(12,13,15,20)        179.6919         calculate D2E/DX2 analytically  !
 ! D47   D(16,13,15,19)       -179.3503         calculate D2E/DX2 analytically  !
 ! D48   D(16,13,15,20)          0.3423         calculate D2E/DX2 analytically  !
 ! D49   D(12,14,17,19)          0.2776         calculate D2E/DX2 analytically  !
 ! D50   D(12,14,17,21)        179.6835         calculate D2E/DX2 analytically  !
 ! D51   D(18,14,17,19)       -178.6429         calculate D2E/DX2 analytically  !
 ! D52   D(18,14,17,21)          0.7629         calculate D2E/DX2 analytically  !
 ! D53   D(12,14,18,50)        -54.1016         calculate D2E/DX2 analytically  !
 ! D54   D(17,14,18,50)        124.8362         calculate D2E/DX2 analytically  !
 ! D55   D(13,15,19,17)          0.1171         calculate D2E/DX2 analytically  !
 ! D56   D(13,15,19,22)       -179.8513         calculate D2E/DX2 analytically  !
 ! D57   D(20,15,19,17)       -179.5728         calculate D2E/DX2 analytically  !
 ! D58   D(20,15,19,22)          0.4588         calculate D2E/DX2 analytically  !
 ! D59   D(14,17,19,15)         -0.2542         calculate D2E/DX2 analytically  !
 ! D60   D(14,17,19,22)        179.7142         calculate D2E/DX2 analytically  !
 ! D61   D(21,17,19,15)       -179.6569         calculate D2E/DX2 analytically  !
 ! D62   D(21,17,19,22)          0.3116         calculate D2E/DX2 analytically  !
 ! D63   D(14,18,50,49)         49.3022         calculate D2E/DX2 analytically  !
 ! D64   D(24,23,26,27)        139.4066         calculate D2E/DX2 analytically  !
 ! D65   D(24,23,26,28)        -42.5839         calculate D2E/DX2 analytically  !
 ! D66   D(25,23,26,27)          4.2956         calculate D2E/DX2 analytically  !
 ! D67   D(25,23,26,28)       -177.6949         calculate D2E/DX2 analytically  !
 ! D68   D(40,23,26,27)       -111.3576         calculate D2E/DX2 analytically  !
 ! D69   D(40,23,26,28)         66.6519         calculate D2E/DX2 analytically  !
 ! D70   D(24,23,40,41)         12.2742         calculate D2E/DX2 analytically  !
 ! D71   D(24,23,40,42)       -129.7239         calculate D2E/DX2 analytically  !
 ! D72   D(25,23,40,41)        143.2632         calculate D2E/DX2 analytically  !
 ! D73   D(25,23,40,42)          1.2651         calculate D2E/DX2 analytically  !
 ! D74   D(26,23,40,41)       -100.6833         calculate D2E/DX2 analytically  !
 ! D75   D(26,23,40,42)        117.3185         calculate D2E/DX2 analytically  !
 ! D76   D(23,26,27,29)        177.9352         calculate D2E/DX2 analytically  !
 ! D77   D(23,26,27,30)         -1.0891         calculate D2E/DX2 analytically  !
 ! D78   D(28,26,27,29)         -0.0162         calculate D2E/DX2 analytically  !
 ! D79   D(28,26,27,30)       -179.0405         calculate D2E/DX2 analytically  !
 ! D80   D(23,26,28,31)       -177.2908         calculate D2E/DX2 analytically  !
 ! D81   D(23,26,28,32)          0.194          calculate D2E/DX2 analytically  !
 ! D82   D(27,26,28,31)          0.6692         calculate D2E/DX2 analytically  !
 ! D83   D(27,26,28,32)        178.1541         calculate D2E/DX2 analytically  !
 ! D84   D(26,27,29,33)         -0.4573         calculate D2E/DX2 analytically  !
 ! D85   D(26,27,29,34)       -179.9978         calculate D2E/DX2 analytically  !
 ! D86   D(30,27,29,33)        178.5486         calculate D2E/DX2 analytically  !
 ! D87   D(30,27,29,34)         -0.9919         calculate D2E/DX2 analytically  !
 ! D88   D(26,28,31,33)         -0.8664         calculate D2E/DX2 analytically  !
 ! D89   D(26,28,31,35)        177.7336         calculate D2E/DX2 analytically  !
 ! D90   D(32,28,31,33)       -178.3867         calculate D2E/DX2 analytically  !
 ! D91   D(32,28,31,35)          0.2133         calculate D2E/DX2 analytically  !
 ! D92   D(27,29,33,31)          0.2644         calculate D2E/DX2 analytically  !
 ! D93   D(27,29,33,36)        179.7365         calculate D2E/DX2 analytically  !
 ! D94   D(34,29,33,31)        179.8039         calculate D2E/DX2 analytically  !
 ! D95   D(34,29,33,36)         -0.724          calculate D2E/DX2 analytically  !
 ! D96   D(28,31,33,29)          0.4115         calculate D2E/DX2 analytically  !
 ! D97   D(28,31,33,36)       -179.0647         calculate D2E/DX2 analytically  !
 ! D98   D(35,31,33,29)       -178.1714         calculate D2E/DX2 analytically  !
 ! D99   D(35,31,33,36)          2.3524         calculate D2E/DX2 analytically  !
 ! D100  D(29,33,36,37)       -101.7735         calculate D2E/DX2 analytically  !
 ! D101  D(29,33,36,38)         18.1214         calculate D2E/DX2 analytically  !
 ! D102  D(29,33,36,39)        139.194          calculate D2E/DX2 analytically  !
 ! D103  D(31,33,36,37)         77.6901         calculate D2E/DX2 analytically  !
 ! D104  D(31,33,36,38)       -162.415          calculate D2E/DX2 analytically  !
 ! D105  D(31,33,36,39)        -41.3423         calculate D2E/DX2 analytically  !
 ! D106  D(23,40,41,43)        173.43           calculate D2E/DX2 analytically  !
 ! D107  D(23,40,41,45)        138.1592         calculate D2E/DX2 analytically  !
 ! D108  D(42,40,41,43)        -40.0482         calculate D2E/DX2 analytically  !
 ! D109  D(42,40,41,45)        -75.319          calculate D2E/DX2 analytically  !
 ! D110  D(23,40,42,3)         -57.3143         calculate D2E/DX2 analytically  !
 ! D111  D(23,40,42,12)         92.4884         calculate D2E/DX2 analytically  !
 ! D112  D(23,40,42,49)       -167.6651         calculate D2E/DX2 analytically  !
 ! D113  D(41,40,42,3)         162.7623         calculate D2E/DX2 analytically  !
 ! D114  D(41,40,42,12)        -47.435          calculate D2E/DX2 analytically  !
 ! D115  D(41,40,42,49)         52.4115         calculate D2E/DX2 analytically  !
 ! D116  D(40,41,43,49)         -4.4718         calculate D2E/DX2 analytically  !
 ! D117  D(40,41,43,59)        116.8576         calculate D2E/DX2 analytically  !
 ! D118  D(40,41,45,48)        -49.0263         calculate D2E/DX2 analytically  !
 ! D119  D(40,41,45,51)       -167.5879         calculate D2E/DX2 analytically  !
 ! D120  D(3,42,49,43)        -168.699          calculate D2E/DX2 analytically  !
 ! D121  D(3,42,49,44)         -46.6854         calculate D2E/DX2 analytically  !
 ! D122  D(3,42,49,50)          72.4509         calculate D2E/DX2 analytically  !
 ! D123  D(12,42,49,43)         66.3847         calculate D2E/DX2 analytically  !
 ! D124  D(12,42,49,44)       -171.6018         calculate D2E/DX2 analytically  !
 ! D125  D(12,42,49,50)        -52.4654         calculate D2E/DX2 analytically  !
 ! D126  D(40,42,49,43)        -51.2685         calculate D2E/DX2 analytically  !
 ! D127  D(40,42,49,44)         70.7451         calculate D2E/DX2 analytically  !
 ! D128  D(40,42,49,50)       -170.1185         calculate D2E/DX2 analytically  !
 ! D129  D(49,43,45,48)          5.8343         calculate D2E/DX2 analytically  !
 ! D130  D(49,43,45,51)       -176.7599         calculate D2E/DX2 analytically  !
 ! D131  D(59,43,45,48)       -176.2021         calculate D2E/DX2 analytically  !
 ! D132  D(59,43,45,51)          1.2037         calculate D2E/DX2 analytically  !
 ! D133  D(41,43,49,42)         24.5847         calculate D2E/DX2 analytically  !
 ! D134  D(41,43,49,44)        -82.2814         calculate D2E/DX2 analytically  !
 ! D135  D(41,43,49,50)        124.1597         calculate D2E/DX2 analytically  !
 ! D136  D(45,43,49,42)         90.5389         calculate D2E/DX2 analytically  !
 ! D137  D(45,43,49,44)        -16.3272         calculate D2E/DX2 analytically  !
 ! D138  D(45,43,49,50)       -169.8862         calculate D2E/DX2 analytically  !
 ! D139  D(59,43,49,42)        -87.4417         calculate D2E/DX2 analytically  !
 ! D140  D(59,43,49,44)        165.6923         calculate D2E/DX2 analytically  !
 ! D141  D(59,43,49,50)         12.1333         calculate D2E/DX2 analytically  !
 ! D142  D(41,43,59,60)       -104.6314         calculate D2E/DX2 analytically  !
 ! D143  D(41,43,59,61)         15.5591         calculate D2E/DX2 analytically  !
 ! D144  D(41,43,59,62)        134.4439         calculate D2E/DX2 analytically  !
 ! D145  D(45,43,59,60)        177.6114         calculate D2E/DX2 analytically  !
 ! D146  D(45,43,59,61)        -62.1981         calculate D2E/DX2 analytically  !
 ! D147  D(45,43,59,62)         56.6867         calculate D2E/DX2 analytically  !
 ! D148  D(49,43,59,60)         -4.4306         calculate D2E/DX2 analytically  !
 ! D149  D(49,43,59,61)        115.7598         calculate D2E/DX2 analytically  !
 ! D150  D(49,43,59,62)       -125.3553         calculate D2E/DX2 analytically  !
 ! D151  D(47,44,46,48)       -178.8711         calculate D2E/DX2 analytically  !
 ! D152  D(47,44,46,55)          0.2538         calculate D2E/DX2 analytically  !
 ! D153  D(49,44,46,48)         -4.4205         calculate D2E/DX2 analytically  !
 ! D154  D(49,44,46,55)        174.7043         calculate D2E/DX2 analytically  !
 ! D155  D(46,44,49,42)        -91.1703         calculate D2E/DX2 analytically  !
 ! D156  D(46,44,49,43)         15.799          calculate D2E/DX2 analytically  !
 ! D157  D(46,44,49,50)        169.2771         calculate D2E/DX2 analytically  !
 ! D158  D(47,44,49,42)         83.3658         calculate D2E/DX2 analytically  !
 ! D159  D(47,44,49,43)       -169.6648         calculate D2E/DX2 analytically  !
 ! D160  D(47,44,49,50)        -16.1867         calculate D2E/DX2 analytically  !
 ! D161  D(41,45,48,46)         79.4902         calculate D2E/DX2 analytically  !
 ! D162  D(41,45,48,63)       -101.6131         calculate D2E/DX2 analytically  !
 ! D163  D(43,45,48,46)          5.2797         calculate D2E/DX2 analytically  !
 ! D164  D(43,45,48,63)       -175.8235         calculate D2E/DX2 analytically  !
 ! D165  D(51,45,48,46)       -172.2564         calculate D2E/DX2 analytically  !
 ! D166  D(51,45,48,63)          6.6404         calculate D2E/DX2 analytically  !
 ! D167  D(41,45,51,52)         90.5706         calculate D2E/DX2 analytically  !
 ! D168  D(41,45,51,53)       -149.6487         calculate D2E/DX2 analytically  !
 ! D169  D(41,45,51,54)        -30.3542         calculate D2E/DX2 analytically  !
 ! D170  D(43,45,51,52)        174.1017         calculate D2E/DX2 analytically  !
 ! D171  D(43,45,51,53)        -66.1176         calculate D2E/DX2 analytically  !
 ! D172  D(43,45,51,54)         53.1769         calculate D2E/DX2 analytically  !
 ! D173  D(48,45,51,52)         -8.416          calculate D2E/DX2 analytically  !
 ! D174  D(48,45,51,53)        111.3647         calculate D2E/DX2 analytically  !
 ! D175  D(48,45,51,54)       -129.3408         calculate D2E/DX2 analytically  !
 ! D176  D(44,46,48,45)         -6.0707         calculate D2E/DX2 analytically  !
 ! D177  D(44,46,48,63)        175.0174         calculate D2E/DX2 analytically  !
 ! D178  D(55,46,48,45)        174.7509         calculate D2E/DX2 analytically  !
 ! D179  D(55,46,48,63)         -4.161          calculate D2E/DX2 analytically  !
 ! D180  D(44,46,55,56)        130.5872         calculate D2E/DX2 analytically  !
 ! D181  D(44,46,55,57)       -112.2329         calculate D2E/DX2 analytically  !
 ! D182  D(44,46,55,58)          8.6324         calculate D2E/DX2 analytically  !
 ! D183  D(48,46,55,56)        -50.2708         calculate D2E/DX2 analytically  !
 ! D184  D(48,46,55,57)         66.909          calculate D2E/DX2 analytically  !
 ! D185  D(48,46,55,58)       -172.2256         calculate D2E/DX2 analytically  !
 ! D186  D(42,49,50,18)          8.5535         calculate D2E/DX2 analytically  !
 ! D187  D(43,49,50,18)        -94.5789         calculate D2E/DX2 analytically  !
 ! D188  D(44,49,50,18)        111.5341         calculate D2E/DX2 analytically  !
 --------------------------------------------------------------------------------
 Trust Radius=3.00D-01 FncErr=1.00D-07 GrdErr=1.00D-06 EigMax=2.50D+02 EigMin=1.00D-04
 Number of steps in this run=    378 maximum allowed number of steps=    378.
 Search for a saddle point of order  1.
 GradGradGradGradGradGradGradGradGradGradGradGradGradGradGradGradGradGrad

 Symmetry turned off by external request.
 Stoichiometry    C29H29NO3S
 Framework group  C1[X(C29H29NO3S)]
 Deg. of freedom   183
 Full point group                 C1      NOp   1
                          Input orientation:                          
 ---------------------------------------------------------------------
 Center     Atomic      Atomic             Coordinates (Angstroms)
 Number     Number       Type             X           Y           Z
 ---------------------------------------------------------------------
      1          6           0       -3.857044    2.230226   -0.325062
      2          6           0       -2.521433    2.261377    0.055694
      3          6           0       -1.776243    1.072455    0.201084
      4          6           0       -2.420239   -0.146320   -0.085711
      5          6           0       -3.759933   -0.173889   -0.466548
      6          6           0       -4.488695    1.010354   -0.581665
      7          1           0       -4.402557    3.163544   -0.428517
      8          1           0       -2.041133    3.210077    0.248068
      9          1           0       -1.863941   -1.074152   -0.052604
     10          1           0       -4.229702   -1.126605   -0.691969
     11          1           0       -5.532021    0.984843   -0.881661
     12          6           0        0.459956   -0.091484    0.751960
     13          6           0        1.705574   -0.227470    0.113762
     14          6           0        0.015907   -1.147887    1.572411
     15          6           0        2.475454   -1.377733    0.290992
     16          1           0        2.074793    0.560586   -0.533216
     17          6           0        0.784303   -2.293604    1.744397
     18          1           0       -0.932563   -1.057790    2.091480
     19          6           0        2.022475   -2.414223    1.105356
     20          1           0        3.431590   -1.460613   -0.216886
     21          1           0        0.421887   -3.091244    2.386096
     22          1           0        2.624470   -3.307056    1.243489
     23         16           0        0.459152    2.716070   -1.580328
     24          8           0        1.898916    2.942587   -1.756592
     25          8           0       -0.279550    1.743451   -2.384014
     26          6           0       -0.370347    4.293055   -1.661078
     27          6           0       -1.581768    4.393467   -2.343403
     28          6           0        0.193038    5.386169   -1.001358
     29          6           0       -2.239356    5.622522   -2.360539
     30          1           0       -1.998189    3.520137   -2.831785
     31          6           0       -0.486711    6.599227   -1.019669
     32          1           0        1.119687    5.293776   -0.448398
     33          6           0       -1.706702    6.738241   -1.700216
     34          1           0       -3.184305    5.713226   -2.889008
     35          1           0       -0.068957    7.440984   -0.475982
     36          6           0       -2.416835    8.069225   -1.724745
     37          1           0       -1.945414    8.747776   -2.445799
     38          1           0       -3.466901    7.961729   -2.009878
     39          1           0       -2.375225    8.558019   -0.746425
     40          7           0        0.330640    2.269774    0.075944
     41          1           0        1.216015    2.475109    0.536198
     42          6           0       -0.343916    1.147330    0.568449
     43          6           0        1.142508    2.149711    2.909838
     44          6           0       -1.193355    2.947251    2.728784
     45          6           0        1.603098    3.413918    2.620286
     46          6           0       -0.789299    4.218327    2.456039
     47          1           0       -2.253007    2.723264    2.813758
     48          6           0        0.651255    4.505167    2.318231
     49          6           0       -0.265514    1.862552    2.793952
     50          1           0       -0.618720    0.915935    3.186347
     51          6           0        3.067433    3.765433    2.650681
     52          1           0        3.207135    4.784631    2.288621
     53          1           0        3.470618    3.703132    3.669849
     54          1           0        3.663959    3.084266    2.032986
     55          6           0       -1.738700    5.363673    2.264984
     56          1           0       -1.437562    6.222358    2.873067
     57          1           0       -1.719754    5.707765    1.224675
     58          1           0       -2.763190    5.079130    2.521006
     59          6           0        2.102470    1.052441    3.302294
     60          1           0        1.581938    0.123741    3.539989
     61          1           0        2.812661    0.830652    2.497947
     62          1           0        2.692127    1.353323    4.175704
     63          8           0        1.039364    5.638006    1.978444
 ---------------------------------------------------------------------
 Rotational constants (GHZ):           0.1775230           0.1120573           0.0947849
 Standard basis: 6-31G(d,p) (6D, 7F)
   659 basis functions,  1179 primitive gaussians,   659 cartesian basis functions
   125 alpha electrons      125 beta electrons
       nuclear repulsion energy      4007.0125923138 Hartrees.
 NAtoms=   63 NActive=   63 NUniq=   63 SFac= 1.00D+00 NAtFMM=   60 NAOKFM=T Big=T
 Integral buffers will be    131072 words long.
 Raffenetti 2 integral format.
 Two-electron integral symmetry is turned off.
 Nuclear repulsion after empirical dispersion term =     4006.9129741520 Hartrees.
 One-electron integrals computed using PRISM.
 NBasis=   659 RedAO= T EigKep=  4.30D-04  NBF=   659
 NBsUse=   659 1.00D-06 EigRej= -1.00D+00 NBFU=   659
 ExpMin= 1.17D-01 ExpMax= 2.19D+04 ExpMxC= 3.30D+03 IAcc=3 IRadAn=         5 AccDes= 0.00D+00
 Harris functional with IExCor=  402 and IRadAn=       5 diagonalized for initial guess.
 HarFok:  IExCor=  402 AccDes= 0.00D+00 IRadAn=         5 IDoV= 1 UseB2=F ITyADJ=14
 ICtDFT=  3500011 ScaDFX=  1.000000  1.000000  1.000000  1.000000
 FoFCou: FMM=F IPFlag=           0 FMFlag=      100000 FMFlg1=        2001
         NFxFlg=           0 DoJE=T BraDBF=F KetDBF=T FulRan=T
         wScrn=  0.000000 ICntrl=       500 IOpCl=  0 I1Cent=   200000004 NGrid=           0
         NMat0=    1 NMatS0=      1 NMatT0=    0 NMatD0=    1 NMtDS0=    0 NMtDT0=    0
 Symmetry not used in FoFCou.
 Mixing orbitals, IMix= 1 IMixAn=  0 NRI=1 NE=  125 Coef=  7.07106781D-01  7.07106781D-01
 Mixing orbitals, IMix= 1 IMixAn=  0 NRI=1 NE=  125 Coef= -7.07106781D-01  7.07106781D-01
 Initial guess <Sx>= 0.0000 <Sy>= 0.0000 <Sz>= 0.0000 <S**2>= 1.0000 S= 0.6180
 Requested convergence on RMS density matrix=1.00D-08 within 128 cycles.
 Requested convergence on MAX density matrix=1.00D-06.
 Requested convergence on             energy=1.00D-06.
 No special actions if energy rises.
 Integral accuracy reduced to 1.0D-05 until final iterations.
 Initial convergence to 1.0D-05 achieved.  Increase integral accuracy.
 SCF Done:  E(UB3LYP) =  -1801.19417417     A.U. after   29 cycles
            NFock= 29  Conv=0.92D-08     -V/T= 2.0083
 <Sx>= 0.0000 <Sy>= 0.0000 <Sz>= 0.0000 <S**2>= 0.0000 S= 0.0000
 <L.S>= 0.000000000000E+00
 Annihilation of the first spin contaminant:
 S**2 before annihilation     0.0000,   after     0.0000
 DoSCS=F DFT=T ScalE2(SS,OS)=  1.000000  1.000000
 Range of M.O.s used for correlation:     1   659
 NBasis=   659 NAE=   125 NBE=   125 NFC=     0 NFV=     0
 NROrb=    659 NOA=   125 NOB=   125 NVA=   534 NVB=   534

 **** Warning!!: The smallest alpha delta epsilon is  0.95014146D-01


 **** Warning!!: The smallest beta delta epsilon is  0.95014120D-01

 Symmetrizing basis deriv contribution to polar:
 IMax=3 JMax=2 DiffMx= 0.00D+00
 G2DrvN: will do    64 centers at a time, making    1 passes.
 Calling FoFCou, ICntrl=  3107 FMM=T I1Cent=   0 AccDes= 0.00D+00.
 End of G2Drv F.D. properties file   721 does not exist.
 End of G2Drv F.D. properties file   722 does not exist.
 End of G2Drv F.D. properties file   788 does not exist.
          IDoAtm=11111111111111111111111111111111111111111111111111
          IDoAtm=1111111111111
          Differentiating once with respect to nuclear coordinates.
 CalDSu exits because no D1Ps are significant.
          There are   192 degrees of freedom in the 1st order CPHF.  IDoFFX=6 NUNeed=     0.
    186 vectors produced by pass  0 Test12= 1.34D-13 1.00D-09 XBig12= 6.73D-01 1.46D-01.
 AX will form    72 AO Fock derivatives at one time.
    186 vectors produced by pass  1 Test12= 1.34D-13 1.00D-09 XBig12= 1.57D-01 5.05D-02.
    186 vectors produced by pass  2 Test12= 1.34D-13 1.00D-09 XBig12= 1.75D-03 2.93D-03.
    186 vectors produced by pass  3 Test12= 1.34D-13 1.00D-09 XBig12= 7.22D-06 1.69D-04.
    186 vectors produced by pass  4 Test12= 1.34D-13 1.00D-09 XBig12= 1.15D-08 7.16D-06.
    162 vectors produced by pass  5 Test12= 1.34D-13 1.00D-09 XBig12= 1.14D-11 2.26D-07.
     35 vectors produced by pass  6 Test12= 1.34D-13 1.00D-09 XBig12= 1.23D-14 5.72D-09.
      8 vectors produced by pass  7 Test12= 1.34D-13 1.00D-09 XBig12= 1.79D-15 3.04D-09.
      5 vectors produced by pass  8 Test12= 1.34D-13 1.00D-09 XBig12= 2.93D-15 2.90D-09.
      5 vectors produced by pass  9 Test12= 1.34D-13 1.00D-09 XBig12= 3.08D-15 2.45D-09.
      5 vectors produced by pass 10 Test12= 1.34D-13 1.00D-09 XBig12= 3.83D-15 2.90D-09.
      5 vectors produced by pass 11 Test12= 1.34D-13 1.00D-09 XBig12= 3.30D-15 2.12D-09.
      3 vectors produced by pass 12 Test12= 1.34D-13 1.00D-09 XBig12= 1.61D-15 2.32D-09.
      2 vectors produced by pass 13 Test12= 1.34D-13 1.00D-09 XBig12= 2.73D-15 1.84D-09.
 InvSVY:  IOpt=1 It=  1 EMax= 8.88D-16
 Solved reduced A of dimension  1160 with   192 vectors.
 End of Minotr F.D. properties file   721 does not exist.
 End of Minotr F.D. properties file   722 does not exist.
 End of Minotr F.D. properties file   788 does not exist.

 **********************************************************************

            Population analysis using the SCF Density.

 **********************************************************************

 Alpha  occ. eigenvalues --  -89.11668 -19.14945 -19.14729 -19.10457 -14.37402
 Alpha  occ. eigenvalues --  -10.27503 -10.24412 -10.22473 -10.21471 -10.21371
 Alpha  occ. eigenvalues --  -10.21166 -10.20940 -10.20535 -10.20342 -10.20341
 Alpha  occ. eigenvalues --  -10.20271 -10.20212 -10.20189 -10.20072 -10.20063
 Alpha  occ. eigenvalues --  -10.20033 -10.19982 -10.19889 -10.19793 -10.19756
 Alpha  occ. eigenvalues --  -10.19750 -10.19483 -10.19370 -10.18901 -10.18763
 Alpha  occ. eigenvalues --  -10.18641 -10.18116 -10.17245 -10.17009  -8.14181
 Alpha  occ. eigenvalues --   -6.10717  -6.10594  -6.10446  -1.11482  -1.00690
 Alpha  occ. eigenvalues --   -0.99910  -0.94673  -0.87488  -0.86603  -0.86039
 Alpha  occ. eigenvalues --   -0.84671  -0.79929  -0.78986  -0.78559  -0.75982
 Alpha  occ. eigenvalues --   -0.75784  -0.75560  -0.75024  -0.73969  -0.72107
 Alpha  occ. eigenvalues --   -0.71574  -0.68564  -0.66677  -0.64934  -0.64729
 Alpha  occ. eigenvalues --   -0.62245  -0.62040  -0.61680  -0.60541  -0.59301
 Alpha  occ. eigenvalues --   -0.57597  -0.57399  -0.55115  -0.54949  -0.53796
 Alpha  occ. eigenvalues --   -0.52429  -0.50380  -0.49476  -0.48450  -0.47971
 Alpha  occ. eigenvalues --   -0.47396  -0.47150  -0.46948  -0.45945  -0.45542
 Alpha  occ. eigenvalues --   -0.44743  -0.44595  -0.44290  -0.43430  -0.43414
 Alpha  occ. eigenvalues --   -0.43099  -0.42930  -0.42870  -0.42581  -0.42336
 Alpha  occ. eigenvalues --   -0.40983  -0.40484  -0.39818  -0.39631  -0.39536
 Alpha  occ. eigenvalues --   -0.38896  -0.38584  -0.38180  -0.37487  -0.37182
 Alpha  occ. eigenvalues --   -0.37091  -0.36771  -0.36400  -0.36029  -0.35908
 Alpha  occ. eigenvalues --   -0.35380  -0.35096  -0.35093  -0.34151  -0.34006
 Alpha  occ. eigenvalues --   -0.33469  -0.33406  -0.32270  -0.31065  -0.30826
 Alpha  occ. eigenvalues --   -0.28855  -0.27611  -0.26586  -0.26237  -0.26001
 Alpha  occ. eigenvalues --   -0.25623  -0.25324  -0.23575  -0.22648  -0.19274
 Alpha virt. eigenvalues --   -0.09773  -0.03434  -0.02175  -0.01719  -0.01319
 Alpha virt. eigenvalues --   -0.00664   0.00617   0.01398   0.03495   0.06739
 Alpha virt. eigenvalues --    0.07635   0.08416   0.08854   0.08937   0.09680
 Alpha virt. eigenvalues --    0.10541   0.10835   0.11523   0.11936   0.12662
 Alpha virt. eigenvalues --    0.13421   0.13700   0.13986   0.14083   0.14266
 Alpha virt. eigenvalues --    0.14710   0.14872   0.15164   0.15622   0.16169
 Alpha virt. eigenvalues --    0.16544   0.16683   0.16854   0.17204   0.17719
 Alpha virt. eigenvalues --    0.18218   0.18510   0.18897   0.19291   0.19588
 Alpha virt. eigenvalues --    0.19834   0.20021   0.21006   0.22069   0.22424
 Alpha virt. eigenvalues --    0.22808   0.23530   0.24316   0.24985   0.25243
 Alpha virt. eigenvalues --    0.25984   0.26413   0.26774   0.28565   0.28744
 Alpha virt. eigenvalues --    0.28855   0.29325   0.29897   0.30078   0.30947
 Alpha virt. eigenvalues --    0.32240   0.32527   0.33061   0.33910   0.34057
 Alpha virt. eigenvalues --    0.34564   0.35254   0.36512   0.37408   0.37860
 Alpha virt. eigenvalues --    0.38335   0.40869   0.42620   0.43235   0.44632
 Alpha virt. eigenvalues --    0.45017   0.46823   0.47507   0.48141   0.49417
 Alpha virt. eigenvalues --    0.50057   0.50412   0.51448   0.51602   0.52209
 Alpha virt. eigenvalues --    0.52402   0.52735   0.53116   0.53287   0.53782
 Alpha virt. eigenvalues --    0.54515   0.54727   0.55024   0.55355   0.55594
 Alpha virt. eigenvalues --    0.56080   0.56342   0.56765   0.57128   0.57683
 Alpha virt. eigenvalues --    0.57863   0.58174   0.58320   0.58600   0.58946
 Alpha virt. eigenvalues --    0.59178   0.59349   0.59820   0.60328   0.60581
 Alpha virt. eigenvalues --    0.60921   0.60975   0.61302   0.61869   0.62193
 Alpha virt. eigenvalues --    0.62682   0.62803   0.63737   0.63887   0.64772
 Alpha virt. eigenvalues --    0.65894   0.66115   0.67062   0.67446   0.68503
 Alpha virt. eigenvalues --    0.69119   0.69380   0.70133   0.71335   0.71968
 Alpha virt. eigenvalues --    0.72835   0.73251   0.74387   0.75081   0.75411
 Alpha virt. eigenvalues --    0.76103   0.76258   0.76826   0.77378   0.77745
 Alpha virt. eigenvalues --    0.78989   0.79410   0.79780   0.80120   0.81001
 Alpha virt. eigenvalues --    0.81143   0.81332   0.81561   0.81980   0.82173
 Alpha virt. eigenvalues --    0.82294   0.82736   0.83140   0.83304   0.83862
 Alpha virt. eigenvalues --    0.84757   0.84871   0.85251   0.85450   0.86046
 Alpha virt. eigenvalues --    0.86731   0.87316   0.87554   0.88031   0.88417
 Alpha virt. eigenvalues --    0.88812   0.89212   0.89747   0.89842   0.90860
 Alpha virt. eigenvalues --    0.91205   0.91559   0.92404   0.92516   0.92796
 Alpha virt. eigenvalues --    0.93298   0.93798   0.94488   0.94695   0.95099
 Alpha virt. eigenvalues --    0.96218   0.96829   0.97849   0.98423   0.99295
 Alpha virt. eigenvalues --    0.99910   1.00358   1.01190   1.01404   1.02253
 Alpha virt. eigenvalues --    1.02856   1.03544   1.04482   1.05107   1.05792
 Alpha virt. eigenvalues --    1.06993   1.07106   1.07931   1.08639   1.09312
 Alpha virt. eigenvalues --    1.10169   1.10744   1.11840   1.12691   1.13931
 Alpha virt. eigenvalues --    1.14354   1.15162   1.15713   1.16363   1.17325
 Alpha virt. eigenvalues --    1.17514   1.17995   1.19341   1.19786   1.20663
 Alpha virt. eigenvalues --    1.21450   1.22022   1.22460   1.23221   1.23947
 Alpha virt. eigenvalues --    1.24819   1.26263   1.26441   1.27157   1.28567
 Alpha virt. eigenvalues --    1.29034   1.29371   1.29919   1.30191   1.30881
 Alpha virt. eigenvalues --    1.32041   1.33413   1.33812   1.34886   1.35379
 Alpha virt. eigenvalues --    1.36142   1.36980   1.37219   1.37505   1.38796
 Alpha virt. eigenvalues --    1.39340   1.39562   1.40085   1.40617   1.41165
 Alpha virt. eigenvalues --    1.41444   1.41651   1.42329   1.42666   1.43808
 Alpha virt. eigenvalues --    1.44413   1.44739   1.45557   1.46031   1.46844
 Alpha virt. eigenvalues --    1.48112   1.48758   1.49660   1.51005   1.53388
 Alpha virt. eigenvalues --    1.56226   1.60531   1.62843   1.63697   1.64977
 Alpha virt. eigenvalues --    1.67067   1.69326   1.69876   1.70463   1.71648
 Alpha virt. eigenvalues --    1.72119   1.72930   1.73336   1.74453   1.75730
 Alpha virt. eigenvalues --    1.75946   1.76301   1.77164   1.77487   1.78380
 Alpha virt. eigenvalues --    1.78816   1.79501   1.80598   1.80648   1.81033
 Alpha virt. eigenvalues --    1.81899   1.82712   1.83206   1.83769   1.84085
 Alpha virt. eigenvalues --    1.84886   1.85476   1.85703   1.86492   1.87297
 Alpha virt. eigenvalues --    1.87736   1.87940   1.88905   1.89583   1.90744
 Alpha virt. eigenvalues --    1.91227   1.91718   1.92254   1.93423   1.93738
 Alpha virt. eigenvalues --    1.94303   1.95055   1.95743   1.96116   1.96929
 Alpha virt. eigenvalues --    1.97713   1.97905   1.98065   1.98418   1.98634
 Alpha virt. eigenvalues --    1.99367   1.99577   1.99822   2.00101   2.00620
 Alpha virt. eigenvalues --    2.00794   2.01957   2.02300   2.02995   2.03339
 Alpha virt. eigenvalues --    2.04143   2.04872   2.05243   2.05383   2.05672
 Alpha virt. eigenvalues --    2.06174   2.06623   2.07303   2.07367   2.08176
 Alpha virt. eigenvalues --    2.08713   2.09557   2.10272   2.10814   2.11117
 Alpha virt. eigenvalues --    2.11391   2.12688   2.13016   2.13372   2.14060
 Alpha virt. eigenvalues --    2.14703   2.15411   2.16770   2.17137   2.17971
 Alpha virt. eigenvalues --    2.19158   2.19839   2.20322   2.21792   2.23107
 Alpha virt. eigenvalues --    2.25290   2.26194   2.26966   2.27631   2.27776
 Alpha virt. eigenvalues --    2.28487   2.29113   2.30157   2.30528   2.31231
 Alpha virt. eigenvalues --    2.31579   2.31839   2.32625   2.33300   2.34853
 Alpha virt. eigenvalues --    2.36407   2.36486   2.37174   2.37565   2.37881
 Alpha virt. eigenvalues --    2.38093   2.39624   2.40145   2.40972   2.41011
 Alpha virt. eigenvalues --    2.41510   2.42212   2.42359   2.42539   2.44106
 Alpha virt. eigenvalues --    2.44352   2.44533   2.44927   2.45518   2.45961
 Alpha virt. eigenvalues --    2.46411   2.46657   2.48253   2.49436   2.50444
 Alpha virt. eigenvalues --    2.50989   2.51396   2.51989   2.52556   2.53276
 Alpha virt. eigenvalues --    2.53734   2.54184   2.54429   2.54891   2.56238
 Alpha virt. eigenvalues --    2.56974   2.57910   2.59012   2.59333   2.59789
 Alpha virt. eigenvalues --    2.59900   2.60697   2.61530   2.61988   2.62323
 Alpha virt. eigenvalues --    2.63170   2.63919   2.64195   2.64917   2.66815
 Alpha virt. eigenvalues --    2.67506   2.68673   2.69619   2.69758   2.70251
 Alpha virt. eigenvalues --    2.70796   2.71732   2.72313   2.73563   2.74384
 Alpha virt. eigenvalues --    2.74869   2.75040   2.76074   2.76909   2.77934
 Alpha virt. eigenvalues --    2.78872   2.79554   2.80745   2.82069   2.82899
 Alpha virt. eigenvalues --    2.83170   2.84338   2.85614   2.86392   2.86694
 Alpha virt. eigenvalues --    2.87548   2.87811   2.88417   2.89791   2.91374
 Alpha virt. eigenvalues --    2.92319   2.93585   2.95730   2.95924   2.96976
 Alpha virt. eigenvalues --    3.04633   3.05361   3.05887   3.06093   3.06774
 Alpha virt. eigenvalues --    3.07515   3.09539   3.11189   3.17370   3.19411
 Alpha virt. eigenvalues --    3.19477   3.19845   3.20356   3.20956   3.22664
 Alpha virt. eigenvalues --    3.23059   3.23719   3.25201   3.25558   3.27133
 Alpha virt. eigenvalues --    3.28010   3.28189   3.32068   3.34349   3.34867
 Alpha virt. eigenvalues --    3.36128   3.38099   3.40998   3.42343   3.42868
 Alpha virt. eigenvalues --    3.44001   3.44703   3.45958   3.46444   3.47433
 Alpha virt. eigenvalues --    3.47780   3.48302   3.50816   3.51255   3.51693
 Alpha virt. eigenvalues --    3.53780   3.68249   3.78733   3.88148   3.89599
 Alpha virt. eigenvalues --    3.90597   4.03011   4.10932   4.12453   4.14035
 Alpha virt. eigenvalues --    4.14359   4.14737   4.16876   4.18402   4.20458
 Alpha virt. eigenvalues --    4.21751   4.22715   4.25274   4.26427   4.28418
 Alpha virt. eigenvalues --    4.31485   4.36854   4.38474   4.39575   4.43774
 Alpha virt. eigenvalues --    4.46405   4.47123   4.48537   4.49787   4.50903
 Alpha virt. eigenvalues --    4.53571   4.57810   4.63069   4.68432   4.72224
 Alpha virt. eigenvalues --    4.80757   4.81203   4.89124   4.90493
  Beta  occ. eigenvalues --  -89.11668 -19.14945 -19.14729 -19.10457 -14.37402
  Beta  occ. eigenvalues --  -10.27503 -10.24412 -10.22473 -10.21471 -10.21371
  Beta  occ. eigenvalues --  -10.21166 -10.20940 -10.20535 -10.20342 -10.20341
  Beta  occ. eigenvalues --  -10.20271 -10.20212 -10.20189 -10.20072 -10.20063
  Beta  occ. eigenvalues --  -10.20033 -10.19982 -10.19889 -10.19793 -10.19756
  Beta  occ. eigenvalues --  -10.19750 -10.19483 -10.19370 -10.18901 -10.18763
  Beta  occ. eigenvalues --  -10.18641 -10.18116 -10.17245 -10.17009  -8.14181
  Beta  occ. eigenvalues --   -6.10717  -6.10594  -6.10446  -1.11482  -1.00690
  Beta  occ. eigenvalues --   -0.99910  -0.94673  -0.87488  -0.86603  -0.86039
  Beta  occ. eigenvalues --   -0.84671  -0.79929  -0.78986  -0.78559  -0.75982
  Beta  occ. eigenvalues --   -0.75784  -0.75560  -0.75024  -0.73969  -0.72107
  Beta  occ. eigenvalues --   -0.71574  -0.68564  -0.66677  -0.64934  -0.64729
  Beta  occ. eigenvalues --   -0.62245  -0.62040  -0.61680  -0.60541  -0.59301
  Beta  occ. eigenvalues --   -0.57597  -0.57399  -0.55115  -0.54949  -0.53796
  Beta  occ. eigenvalues --   -0.52429  -0.50380  -0.49476  -0.48450  -0.47971
  Beta  occ. eigenvalues --   -0.47396  -0.47150  -0.46948  -0.45945  -0.45542
  Beta  occ. eigenvalues --   -0.44743  -0.44595  -0.44290  -0.43430  -0.43414
  Beta  occ. eigenvalues --   -0.43099  -0.42930  -0.42870  -0.42581  -0.42336
  Beta  occ. eigenvalues --   -0.40983  -0.40484  -0.39818  -0.39631  -0.39536
  Beta  occ. eigenvalues --   -0.38896  -0.38584  -0.38180  -0.37487  -0.37182
  Beta  occ. eigenvalues --   -0.37091  -0.36771  -0.36400  -0.36029  -0.35908
  Beta  occ. eigenvalues --   -0.35380  -0.35096  -0.35093  -0.34151  -0.34006
  Beta  occ. eigenvalues --   -0.33469  -0.33406  -0.32270  -0.31065  -0.30826
  Beta  occ. eigenvalues --   -0.28855  -0.27611  -0.26586  -0.26237  -0.26001
  Beta  occ. eigenvalues --   -0.25623  -0.25324  -0.23575  -0.22648  -0.19274
  Beta virt. eigenvalues --   -0.09773  -0.03434  -0.02175  -0.01719  -0.01319
  Beta virt. eigenvalues --   -0.00664   0.00617   0.01398   0.03495   0.06739
  Beta virt. eigenvalues --    0.07635   0.08416   0.08854   0.08937   0.09680
  Beta virt. eigenvalues --    0.10541   0.10835   0.11523   0.11936   0.12662
  Beta virt. eigenvalues --    0.13421   0.13700   0.13986   0.14083   0.14266
  Beta virt. eigenvalues --    0.14710   0.14872   0.15164   0.15622   0.16169
  Beta virt. eigenvalues --    0.16544   0.16683   0.16854   0.17204   0.17719
  Beta virt. eigenvalues --    0.18218   0.18510   0.18897   0.19291   0.19588
  Beta virt. eigenvalues --    0.19834   0.20021   0.21006   0.22069   0.22424
  Beta virt. eigenvalues --    0.22808   0.23530   0.24316   0.24985   0.25243
  Beta virt. eigenvalues --    0.25984   0.26413   0.26774   0.28565   0.28744
  Beta virt. eigenvalues --    0.28855   0.29325   0.29897   0.30078   0.30947
  Beta virt. eigenvalues --    0.32240   0.32527   0.33061   0.33910   0.34057
  Beta virt. eigenvalues --    0.34564   0.35254   0.36512   0.37408   0.37860
  Beta virt. eigenvalues --    0.38335   0.40869   0.42620   0.43235   0.44632
  Beta virt. eigenvalues --    0.45017   0.46823   0.47507   0.48141   0.49417
  Beta virt. eigenvalues --    0.50057   0.50412   0.51448   0.51602   0.52209
  Beta virt. eigenvalues --    0.52402   0.52735   0.53116   0.53287   0.53782
  Beta virt. eigenvalues --    0.54515   0.54727   0.55024   0.55355   0.55594
  Beta virt. eigenvalues --    0.56080   0.56342   0.56765   0.57128   0.57683
  Beta virt. eigenvalues --    0.57863   0.58174   0.58320   0.58600   0.58946
  Beta virt. eigenvalues --    0.59178   0.59349   0.59820   0.60328   0.60581
  Beta virt. eigenvalues --    0.60921   0.60975   0.61302   0.61869   0.62193
  Beta virt. eigenvalues --    0.62682   0.62803   0.63737   0.63887   0.64772
  Beta virt. eigenvalues --    0.65894   0.66115   0.67062   0.67446   0.68503
  Beta virt. eigenvalues --    0.69119   0.69380   0.70133   0.71335   0.71968
  Beta virt. eigenvalues --    0.72835   0.73251   0.74387   0.75081   0.75411
  Beta virt. eigenvalues --    0.76103   0.76258   0.76826   0.77378   0.77745
  Beta virt. eigenvalues --    0.78989   0.79410   0.79780   0.80120   0.81001
  Beta virt. eigenvalues --    0.81143   0.81332   0.81561   0.81980   0.82173
  Beta virt. eigenvalues --    0.82294   0.82736   0.83140   0.83304   0.83862
  Beta virt. eigenvalues --    0.84757   0.84871   0.85251   0.85450   0.86046
  Beta virt. eigenvalues --    0.86731   0.87316   0.87554   0.88031   0.88417
  Beta virt. eigenvalues --    0.88812   0.89212   0.89747   0.89842   0.90860
  Beta virt. eigenvalues --    0.91205   0.91559   0.92404   0.92516   0.92796
  Beta virt. eigenvalues --    0.93298   0.93798   0.94488   0.94695   0.95099
  Beta virt. eigenvalues --    0.96218   0.96829   0.97849   0.98423   0.99295
  Beta virt. eigenvalues --    0.99910   1.00358   1.01190   1.01404   1.02253
  Beta virt. eigenvalues --    1.02856   1.03544   1.04482   1.05107   1.05792
  Beta virt. eigenvalues --    1.06993   1.07106   1.07931   1.08639   1.09312
  Beta virt. eigenvalues --    1.10169   1.10744   1.11840   1.12691   1.13931
  Beta virt. eigenvalues --    1.14354   1.15162   1.15713   1.16363   1.17325
  Beta virt. eigenvalues --    1.17514   1.17995   1.19341   1.19786   1.20663
  Beta virt. eigenvalues --    1.21450   1.22022   1.22460   1.23221   1.23947
  Beta virt. eigenvalues --    1.24819   1.26263   1.26441   1.27157   1.28567
  Beta virt. eigenvalues --    1.29034   1.29371   1.29919   1.30191   1.30881
  Beta virt. eigenvalues --    1.32041   1.33413   1.33812   1.34886   1.35379
  Beta virt. eigenvalues --    1.36142   1.36980   1.37219   1.37505   1.38796
  Beta virt. eigenvalues --    1.39340   1.39562   1.40085   1.40617   1.41165
  Beta virt. eigenvalues --    1.41444   1.41651   1.42329   1.42666   1.43808
  Beta virt. eigenvalues --    1.44413   1.44739   1.45557   1.46031   1.46844
  Beta virt. eigenvalues --    1.48112   1.48758   1.49660   1.51005   1.53388
  Beta virt. eigenvalues --    1.56226   1.60531   1.62843   1.63697   1.64977
  Beta virt. eigenvalues --    1.67067   1.69326   1.69876   1.70463   1.71648
  Beta virt. eigenvalues --    1.72119   1.72930   1.73336   1.74453   1.75730
  Beta virt. eigenvalues --    1.75946   1.76301   1.77164   1.77487   1.78380
  Beta virt. eigenvalues --    1.78816   1.79501   1.80598   1.80648   1.81033
  Beta virt. eigenvalues --    1.81899   1.82712   1.83206   1.83769   1.84085
  Beta virt. eigenvalues --    1.84886   1.85476   1.85703   1.86492   1.87297
  Beta virt. eigenvalues --    1.87736   1.87940   1.88905   1.89583   1.90744
  Beta virt. eigenvalues --    1.91227   1.91718   1.92254   1.93423   1.93738
  Beta virt. eigenvalues --    1.94303   1.95055   1.95743   1.96116   1.96929
  Beta virt. eigenvalues --    1.97713   1.97905   1.98065   1.98418   1.98634
  Beta virt. eigenvalues --    1.99367   1.99577   1.99822   2.00101   2.00620
  Beta virt. eigenvalues --    2.00794   2.01957   2.02300   2.02995   2.03339
  Beta virt. eigenvalues --    2.04143   2.04872   2.05243   2.05383   2.05672
  Beta virt. eigenvalues --    2.06174   2.06623   2.07303   2.07367   2.08176
  Beta virt. eigenvalues --    2.08713   2.09557   2.10272   2.10814   2.11117
  Beta virt. eigenvalues --    2.11391   2.12688   2.13016   2.13372   2.14060
  Beta virt. eigenvalues --    2.14703   2.15411   2.16770   2.17137   2.17971
  Beta virt. eigenvalues --    2.19158   2.19839   2.20322   2.21792   2.23107
  Beta virt. eigenvalues --    2.25290   2.26194   2.26966   2.27631   2.27776
  Beta virt. eigenvalues --    2.28487   2.29113   2.30157   2.30528   2.31231
  Beta virt. eigenvalues --    2.31579   2.31839   2.32625   2.33300   2.34853
  Beta virt. eigenvalues --    2.36407   2.36486   2.37174   2.37565   2.37881
  Beta virt. eigenvalues --    2.38093   2.39624   2.40145   2.40972   2.41011
  Beta virt. eigenvalues --    2.41510   2.42212   2.42359   2.42539   2.44106
  Beta virt. eigenvalues --    2.44352   2.44533   2.44927   2.45518   2.45961
  Beta virt. eigenvalues --    2.46411   2.46657   2.48253   2.49436   2.50444
  Beta virt. eigenvalues --    2.50989   2.51396   2.51989   2.52556   2.53276
  Beta virt. eigenvalues --    2.53734   2.54184   2.54429   2.54891   2.56238
  Beta virt. eigenvalues --    2.56974   2.57910   2.59012   2.59333   2.59789
  Beta virt. eigenvalues --    2.59900   2.60697   2.61530   2.61988   2.62323
  Beta virt. eigenvalues --    2.63170   2.63919   2.64195   2.64917   2.66815
  Beta virt. eigenvalues --    2.67506   2.68673   2.69619   2.69758   2.70251
  Beta virt. eigenvalues --    2.70796   2.71732   2.72313   2.73563   2.74384
  Beta virt. eigenvalues --    2.74869   2.75040   2.76074   2.76909   2.77934
  Beta virt. eigenvalues --    2.78872   2.79554   2.80745   2.82069   2.82899
  Beta virt. eigenvalues --    2.83170   2.84338   2.85614   2.86392   2.86694
  Beta virt. eigenvalues --    2.87548   2.87811   2.88417   2.89791   2.91374
  Beta virt. eigenvalues --    2.92319   2.93585   2.95730   2.95924   2.96976
  Beta virt. eigenvalues --    3.04633   3.05361   3.05887   3.06093   3.06774
  Beta virt. eigenvalues --    3.07515   3.09539   3.11189   3.17370   3.19411
  Beta virt. eigenvalues --    3.19477   3.19845   3.20356   3.20956   3.22664
  Beta virt. eigenvalues --    3.23059   3.23719   3.25201   3.25558   3.27133
  Beta virt. eigenvalues --    3.28010   3.28189   3.32068   3.34349   3.34867
  Beta virt. eigenvalues --    3.36128   3.38099   3.40998   3.42343   3.42868
  Beta virt. eigenvalues --    3.44001   3.44703   3.45958   3.46444   3.47433
  Beta virt. eigenvalues --    3.47780   3.48302   3.50816   3.51255   3.51693
  Beta virt. eigenvalues --    3.53780   3.68249   3.78733   3.88148   3.89599
  Beta virt. eigenvalues --    3.90597   4.03011   4.10932   4.12453   4.14035
  Beta virt. eigenvalues --    4.14359   4.14737   4.16876   4.18402   4.20458
  Beta virt. eigenvalues --    4.21751   4.22715   4.25274   4.26427   4.28418
  Beta virt. eigenvalues --    4.31485   4.36854   4.38474   4.39575   4.43774
  Beta virt. eigenvalues --    4.46405   4.47123   4.48537   4.49787   4.50903
  Beta virt. eigenvalues --    4.53571   4.57810   4.63069   4.68432   4.72224
  Beta virt. eigenvalues --    4.80757   4.81203   4.89124   4.90493
          Condensed to atoms (all electrons):
          Atomic-Atomic Spin Densities.
 Mulliken charges and spin densities:
               1          2
     1  C   -0.103370   0.000001
     2  C   -0.107907  -0.000001
     3  C    0.115726   0.000001
     4  C   -0.118783  -0.000001
     5  C   -0.092817   0.000001
     6  C   -0.077800  -0.000001
     7  H    0.090584  -0.000000
     8  H    0.125211   0.000000
     9  H    0.104877   0.000000
    10  H    0.091528  -0.000000
    11  H    0.090442   0.000000
    12  C    0.127974   0.000002
    13  C   -0.126100  -0.000002
    14  C   -0.129720  -0.000002
    15  C   -0.092782   0.000002
    16  H    0.116325   0.000000
    17  C   -0.094123   0.000002
    18  H    0.099855   0.000000
    19  C   -0.079512  -0.000002
    20  H    0.099219  -0.000000
    21  H    0.092964  -0.000000
    22  H    0.092999   0.000000
    23  S    1.275624   0.000000
    24  O   -0.558341  -0.000000
    25  O   -0.527062  -0.000000
    26  C   -0.191263  -0.000001
    27  C   -0.077355   0.000001
    28  C   -0.055958   0.000001
    29  C   -0.125483  -0.000001
    30  H    0.137873  -0.000000
    31  C   -0.129569  -0.000001
    32  H    0.144503  -0.000000
    33  C    0.128009   0.000001
    34  H    0.089842   0.000000
    35  H    0.110449   0.000000
    36  C   -0.381253  -0.000000
    37  H    0.135538   0.000000
    38  H    0.114373   0.000000
    39  H    0.127304   0.000000
    40  N   -0.679457  -0.000000
    41  H    0.301244   0.000000
    42  C    0.109196  -0.000001
    43  C    0.078931   0.000000
    44  C   -0.105220  -0.000000
    45  C   -0.019651   0.000000
    46  C    0.081136   0.000001
    47  H    0.089179   0.000000
    48  C    0.370981   0.000000
    49  C   -0.166983   0.000001
    50  H    0.088342   0.000000
    51  C   -0.376482  -0.000000
    52  H    0.142070   0.000000
    53  H    0.116476   0.000000
    54  H    0.108619   0.000000
    55  C   -0.364707  -0.000000
    56  H    0.126877   0.000000
    57  H    0.129661   0.000000
    58  H    0.094191   0.000000
    59  C   -0.370825  -0.000000
    60  H    0.112495   0.000000
    61  H    0.126069   0.000000
    62  H    0.119537  -0.000000
    63  O   -0.553702   0.000000
 Sum of Mulliken charges =  -0.00000   0.00000
 Mulliken charges and spin densities with hydrogens summed into heavy atoms:
               1          2
     1  C   -0.012786   0.000001
     2  C    0.017304  -0.000001
     3  C    0.115726   0.000001
     4  C   -0.013906  -0.000001
     5  C   -0.001289   0.000001
     6  C    0.012643  -0.000001
    12  C    0.127974   0.000002
    13  C   -0.009775  -0.000002
    14  C   -0.029864  -0.000002
    15  C    0.006437   0.000002
    17  C   -0.001158   0.000002
    19  C    0.013487  -0.000002
    23  S    1.275624   0.000000
    24  O   -0.558341  -0.000000
    25  O   -0.527062  -0.000000
    26  C   -0.191263  -0.000001
    27  C    0.060517   0.000001
    28  C    0.088545   0.000001
    29  C   -0.035641  -0.000001
    31  C   -0.019120  -0.000001
    33  C    0.128009   0.000001
    36  C   -0.004038  -0.000000
    40  N   -0.378213  -0.000000
    42  C    0.109196  -0.000001
    43  C    0.078931   0.000000
    44  C   -0.016041  -0.000000
    45  C   -0.019651   0.000000
    46  C    0.081136   0.000001
    48  C    0.370981   0.000000
    49  C   -0.078641   0.000001
    51  C   -0.009317   0.000000
    55  C   -0.013977  -0.000000
    59  C   -0.012724  -0.000000
    63  O   -0.553702   0.000000
 APT charges:
               1
     1  C   -0.372416
     2  C   -0.506051
     3  C   -0.607933
     4  C   -0.524827
     5  C   -0.467309
     6  C   -0.354163
     7  H    0.884282
     8  H    0.437635
     9  H    0.129259
    10  H    0.580398
    11  H    0.973847
    12  C   -0.309536
    13  C   -0.513383
    14  C   -0.526875
    15  C   -0.479622
    16  H    0.316657
    17  C   -0.447166
    18  H    0.387253
    19  C   -0.416455
    20  H    0.630316
    21  H    0.671010
    22  H    0.792967
    23  S    0.252417
    24  O   -0.040104
    25  O   -0.605267
    26  C   -0.792691
    27  C   -0.471442
    28  C   -0.584329
    29  C   -0.546184
    30  H    0.015135
    31  C   -0.363404
    32  H    0.180033
    33  C    0.864893
    34  H    0.807523
    35  H    0.967680
    36  C   -1.714636
    37  H    1.001497
    38  H    0.564719
    39  H    0.568782
    40  N   -0.523272
    41  H    0.531987
    42  C   -0.211674
    43  C   -0.526429
    44  C   -0.797272
    45  C    0.366514
    46  C    0.536342
    47  H    0.378079
    48  C   -1.009124
    49  C   -0.549785
    50  H    0.157737
    51  C   -1.292000
    52  H    0.730476
    53  H    0.752417
    54  H    0.017452
    55  C   -1.329113
    56  H    0.992224
    57  H    0.200771
    58  H    0.396198
    59  C   -1.013489
    60  H    0.129506
    61  H    0.131283
    62  H    0.848103
    63  O    0.700562
 Sum of APT charges =  -0.00000
 APT charges with hydrogens summed into heavy atoms:
               1
     1  C    0.511866
     2  C   -0.068415
     3  C   -0.607933
     4  C   -0.395569
     5  C    0.113088
     6  C    0.619684
    12  C   -0.309536
    13  C   -0.196727
    14  C   -0.139623
    15  C    0.150693
    17  C    0.223844
    19  C    0.376513
    23  S    0.252417
    24  O   -0.040104
    25  O   -0.605267
    26  C   -0.792691
    27  C   -0.456307
    28  C   -0.404297
    29  C    0.261339
    31  C    0.604276
    33  C    0.864893
    36  C    0.420361
    40  N    0.008715
    42  C   -0.211674
    43  C   -0.526429
    44  C   -0.419194
    45  C    0.366514
    46  C    0.536342
    48  C   -1.009124
    49  C   -0.392047
    51  C    0.208345
    55  C    0.260081
    59  C    0.095404
    63  O    0.700562
 Electronic spatial extent (au):  <R**2>=          19040.2339
 Charge=             -0.0000 electrons
 Dipole moment (field-independent basis, Debye):
    X=             -3.5592    Y=             -1.9186    Z=              1.6536  Tot=              4.3684
 Quadrupole moment (field-independent basis, Debye-Ang):
   XX=           -190.2454   YY=           -195.4915   ZZ=           -211.3532
   XY=            -21.9127   XZ=              7.3836   YZ=            -12.6721
 Traceless Quadrupole moment (field-independent basis, Debye-Ang):
   XX=              8.7846   YY=              3.5385   ZZ=            -12.3231
   XY=            -21.9127   XZ=              7.3836   YZ=            -12.6721
 Octapole moment (field-independent basis, Debye-Ang**2):
  XXX=            153.3045  YYY=          -1487.8204  ZZZ=           -204.6115  XYY=            -55.5080
  XXY=           -503.8851  XXZ=            -85.0777  XZZ=             53.4506  YZZ=           -546.6122
  YYZ=           -162.8493  XYZ=             24.8505
 Hexadecapole moment (field-independent basis, Debye-Ang**3):
 XXXX=          -4589.7102 YYYY=         -15642.3774 ZZZZ=          -4373.8821 XXXY=           1002.2565
 XXXZ=           -605.3193 YYYX=            339.3264 YYYZ=           -573.6868 ZZZX=           -696.8468
 ZZZY=            141.5261 XXYY=          -3407.3015 XXZZ=          -1510.3360 YYZZ=          -3565.4077
 XXYZ=             16.1017 YYXZ=           -128.5789 ZZXY=            307.1906
 N-N= 4.006912974152D+03 E-N=-1.221575956979D+04  KE= 1.786287362826D+03
  Exact polarizability:       0.000       0.000       0.000       0.000       0.000       0.000
 Approx polarizability:     641.544      45.052     877.700      94.881     116.101     482.094
                          Isotropic Fermi Contact Couplings
        Atom                 a.u.       MegaHertz       Gauss      10(-4) cm-1
     1  C(13)              0.00000       0.00008       0.00003       0.00003
     2  C(13)             -0.00000      -0.00007      -0.00003      -0.00002
     3  C(13)              0.00000       0.00008       0.00003       0.00003
     4  C(13)             -0.00000      -0.00008      -0.00003      -0.00003
     5  C(13)              0.00000       0.00008       0.00003       0.00003
     6  C(13)             -0.00000      -0.00009      -0.00003      -0.00003
     7  H(1)              -0.00000      -0.00004      -0.00001      -0.00001
     8  H(1)               0.00000       0.00004       0.00001       0.00001
     9  H(1)               0.00000       0.00004       0.00001       0.00001
    10  H(1)              -0.00000      -0.00004      -0.00001      -0.00001
    11  H(1)               0.00000       0.00005       0.00002       0.00002
    12  C(13)              0.00000       0.00018       0.00006       0.00006
    13  C(13)             -0.00000      -0.00020      -0.00007      -0.00007
    14  C(13)             -0.00000      -0.00021      -0.00007      -0.00007
    15  C(13)              0.00000       0.00021       0.00008       0.00007
    16  H(1)               0.00000       0.00011       0.00004       0.00004
    17  C(13)              0.00000       0.00021       0.00007       0.00007
    18  H(1)               0.00000       0.00011       0.00004       0.00004
    19  C(13)             -0.00000      -0.00022      -0.00008      -0.00007
    20  H(1)              -0.00000      -0.00011      -0.00004      -0.00004
    21  H(1)              -0.00000      -0.00010      -0.00004      -0.00004
    22  H(1)               0.00000       0.00012       0.00004       0.00004
    23  S(33)             -0.00000      -0.00000      -0.00000      -0.00000
    24  O(17)             -0.00000       0.00000       0.00000       0.00000
    25  O(17)             -0.00000       0.00000       0.00000       0.00000
    26  C(13)             -0.00000      -0.00007      -0.00002      -0.00002
    27  C(13)              0.00000       0.00007       0.00002       0.00002
    28  C(13)              0.00000       0.00007       0.00002       0.00002
    29  C(13)             -0.00000      -0.00007      -0.00002      -0.00002
    30  H(1)              -0.00000      -0.00003      -0.00001      -0.00001
    31  C(13)             -0.00000      -0.00007      -0.00002      -0.00002
    32  H(1)              -0.00000      -0.00004      -0.00001      -0.00001
    33  C(13)              0.00000       0.00007       0.00002       0.00002
    34  H(1)               0.00000       0.00003       0.00001       0.00001
    35  H(1)               0.00000       0.00004       0.00001       0.00001
    36  C(13)             -0.00000      -0.00002      -0.00001      -0.00001
    37  H(1)               0.00000       0.00003       0.00001       0.00001
    38  H(1)               0.00000       0.00001       0.00000       0.00000
    39  H(1)               0.00000       0.00002       0.00001       0.00001
    40  N(14)             -0.00000      -0.00002      -0.00001      -0.00001
    41  H(1)               0.00000       0.00003       0.00001       0.00001
    42  C(13)             -0.00000      -0.00009      -0.00003      -0.00003
    43  C(13)              0.00000       0.00002       0.00001       0.00001
    44  C(13)             -0.00000      -0.00002      -0.00001      -0.00001
    45  C(13)             -0.00000      -0.00001      -0.00000      -0.00000
    46  C(13)              0.00000       0.00003       0.00001       0.00001
    47  H(1)               0.00000       0.00000       0.00000       0.00000
    48  C(13)              0.00000       0.00004       0.00001       0.00001
    49  C(13)              0.00000       0.00003       0.00001       0.00001
    50  H(1)               0.00000       0.00001       0.00000       0.00000
    51  C(13)             -0.00000      -0.00000      -0.00000      -0.00000
    52  H(1)               0.00000       0.00000       0.00000       0.00000
    53  H(1)               0.00000       0.00001       0.00000       0.00000
    54  H(1)               0.00000       0.00001       0.00000       0.00000
    55  C(13)             -0.00000      -0.00002      -0.00001      -0.00001
    56  H(1)               0.00000       0.00002       0.00001       0.00001
    57  H(1)               0.00000       0.00004       0.00001       0.00001
    58  H(1)               0.00000       0.00000       0.00000       0.00000
    59  C(13)             -0.00000      -0.00001      -0.00000      -0.00000
    60  H(1)               0.00000       0.00000       0.00000       0.00000
    61  H(1)               0.00000       0.00000       0.00000       0.00000
    62  H(1)              -0.00000      -0.00000      -0.00000      -0.00000
    63  O(17)              0.00000      -0.00001      -0.00000      -0.00000
 --------------------------------------------------------
       Center         ----  Spin Dipole Couplings  ----
                      3XX-RR        3YY-RR        3ZZ-RR
 --------------------------------------------------------
     1   Atom       -0.000000     -0.000000      0.000000
     2   Atom        0.000000      0.000000     -0.000001
     3   Atom       -0.000000     -0.000000      0.000000
     4   Atom        0.000000      0.000000     -0.000001
     5   Atom       -0.000000     -0.000000      0.000000
     6   Atom        0.000000      0.000000     -0.000001
     7   Atom       -0.000000      0.000000      0.000000
     8   Atom        0.000000     -0.000000      0.000000
     9   Atom        0.000000     -0.000000      0.000000
    10   Atom       -0.000000      0.000000      0.000000
    11   Atom       -0.000000      0.000000     -0.000000
    12   Atom       -0.000000     -0.000000      0.000001
    13   Atom        0.000000      0.000000     -0.000001
    14   Atom        0.000000      0.000000     -0.000001
    15   Atom       -0.000000     -0.000000      0.000001
    16   Atom        0.000000     -0.000000     -0.000000
    17   Atom       -0.000000     -0.000000      0.000001
    18   Atom       -0.000000      0.000000     -0.000000
    19   Atom        0.000000      0.000000     -0.000001
    20   Atom        0.000000     -0.000000      0.000000
    21   Atom       -0.000000      0.000000      0.000000
    22   Atom        0.000000     -0.000000      0.000000
    23   Atom        0.000000      0.000000     -0.000000
    24   Atom        0.000000      0.000000     -0.000000
    25   Atom       -0.000000      0.000000     -0.000000
    26   Atom        0.000000      0.000000     -0.000000
    27   Atom       -0.000000     -0.000000      0.000000
    28   Atom       -0.000000     -0.000000      0.000000
    29   Atom        0.000000      0.000000     -0.000000
    30   Atom       -0.000000      0.000000      0.000000
    31   Atom        0.000000      0.000000     -0.000000
    32   Atom        0.000000     -0.000000      0.000000
    33   Atom       -0.000000     -0.000000      0.000000
    34   Atom       -0.000000      0.000000     -0.000000
    35   Atom        0.000000     -0.000000     -0.000000
    36   Atom        0.000000     -0.000000      0.000000
    37   Atom       -0.000000      0.000000     -0.000000
    38   Atom        0.000000     -0.000000      0.000000
    39   Atom       -0.000000      0.000000     -0.000000
    40   Atom       -0.000000     -0.000000      0.000000
    41   Atom       -0.000000      0.000000      0.000000
    42   Atom        0.000000      0.000000     -0.000001
    43   Atom        0.000000     -0.000000     -0.000000
    44   Atom        0.000000      0.000000     -0.000000
    45   Atom       -0.000000     -0.000000      0.000000
    46   Atom       -0.000000     -0.000000      0.000001
    47   Atom       -0.000000      0.000000     -0.000000
    48   Atom       -0.000000     -0.000000      0.000000
    49   Atom       -0.000000     -0.000000      0.000001
    50   Atom       -0.000000      0.000000      0.000000
    51   Atom        0.000000     -0.000000     -0.000000
    52   Atom        0.000000     -0.000000     -0.000000
    53   Atom        0.000000     -0.000000     -0.000000
    54   Atom        0.000000     -0.000000     -0.000000
    55   Atom        0.000000     -0.000000      0.000000
    56   Atom        0.000000      0.000000     -0.000000
    57   Atom        0.000000     -0.000000     -0.000000
    58   Atom        0.000000     -0.000000     -0.000000
    59   Atom        0.000000     -0.000000     -0.000000
    60   Atom       -0.000000      0.000000     -0.000000
    61   Atom        0.000000      0.000000     -0.000000
    62   Atom        0.000000      0.000000     -0.000000
    63   Atom       -0.000001     -0.000001      0.000001
 --------------------------------------------------------
                        XY            XZ            YZ
 --------------------------------------------------------
     1   Atom        0.000000     -0.000000     -0.000000
     2   Atom       -0.000000      0.000000      0.000000
     3   Atom        0.000000     -0.000000     -0.000000
     4   Atom       -0.000000      0.000000      0.000000
     5   Atom        0.000000     -0.000000     -0.000000
     6   Atom       -0.000000      0.000000      0.000000
     7   Atom       -0.000000     -0.000000     -0.000000
     8   Atom       -0.000000      0.000000     -0.000000
     9   Atom        0.000000     -0.000000      0.000000
    10   Atom        0.000000     -0.000000      0.000000
    11   Atom       -0.000000     -0.000000      0.000000
    12   Atom        0.000000      0.000001      0.000001
    13   Atom       -0.000000     -0.000001     -0.000001
    14   Atom       -0.000000     -0.000001     -0.000001
    15   Atom        0.000000      0.000001      0.000001
    16   Atom       -0.000000      0.000000      0.000000
    17   Atom        0.000000      0.000001      0.000001
    18   Atom       -0.000000      0.000000     -0.000000
    19   Atom       -0.000000     -0.000001     -0.000001
    20   Atom        0.000000     -0.000000      0.000000
    21   Atom        0.000000     -0.000000     -0.000000
    22   Atom        0.000000     -0.000000     -0.000000
    23   Atom       -0.000000      0.000000      0.000000
    24   Atom       -0.000000      0.000000      0.000000
    25   Atom       -0.000000     -0.000000      0.000000
    26   Atom       -0.000000      0.000000      0.000000
    27   Atom        0.000000     -0.000000     -0.000000
    28   Atom        0.000000     -0.000000     -0.000000
    29   Atom       -0.000000      0.000000      0.000000
    30   Atom        0.000000     -0.000000      0.000000
    31   Atom       -0.000000      0.000000      0.000000
    32   Atom        0.000000      0.000000     -0.000000
    33   Atom        0.000000     -0.000000     -0.000000
    34   Atom        0.000000     -0.000000      0.000000
    35   Atom       -0.000000      0.000000     -0.000000
    36   Atom        0.000000     -0.000000     -0.000000
    37   Atom       -0.000000      0.000000     -0.000000
    38   Atom       -0.000000      0.000000     -0.000000
    39   Atom       -0.000000     -0.000000      0.000000
    40   Atom        0.000000      0.000000     -0.000000
    41   Atom       -0.000000     -0.000000     -0.000000
    42   Atom        0.000000      0.000000     -0.000000
    43   Atom       -0.000000     -0.000000     -0.000000
    44   Atom       -0.000000     -0.000000     -0.000000
    45   Atom        0.000000     -0.000000      0.000000
    46   Atom       -0.000000      0.000000      0.000000
    47   Atom       -0.000000      0.000000     -0.000000
    48   Atom        0.000000      0.000000      0.000000
    49   Atom       -0.000000      0.000000      0.000000
    50   Atom        0.000000     -0.000000     -0.000000
    51   Atom       -0.000000     -0.000000     -0.000000
    52   Atom       -0.000000     -0.000000     -0.000000
    53   Atom       -0.000000      0.000000     -0.000000
    54   Atom       -0.000000     -0.000000     -0.000000
    55   Atom       -0.000000      0.000000      0.000000
    56   Atom       -0.000000     -0.000000     -0.000000
    57   Atom       -0.000000      0.000000     -0.000000
    58   Atom       -0.000000      0.000000     -0.000000
    59   Atom       -0.000000      0.000000      0.000000
    60   Atom       -0.000000     -0.000000     -0.000000
    61   Atom       -0.000000     -0.000000     -0.000000
    62   Atom       -0.000000     -0.000000     -0.000000
    63   Atom        0.000000      0.000000      0.000001
 --------------------------------------------------------


 ---------------------------------------------------------------------------------
              Anisotropic Spin Dipole Couplings in Principal Axis System
 ---------------------------------------------------------------------------------

       Atom             a.u.   MegaHertz   Gauss  10(-4) cm-1        Axes

              Baa    -0.0000    -0.000    -0.000    -0.000  0.8914  0.3618  0.2730
     1 C(13)  Bbb    -0.0000    -0.000    -0.000    -0.000 -0.3637  0.9304 -0.0457
              Bcc     0.0000     0.000     0.000     0.000 -0.2706 -0.0585  0.9609
 
              Baa    -0.0000    -0.000    -0.000    -0.000 -0.2825 -0.1034  0.9537
     2 C(13)  Bbb     0.0000     0.000     0.000     0.000  0.3837  0.8990  0.2111
              Bcc     0.0000     0.000     0.000     0.000  0.8792 -0.4256  0.2143
 
              Baa    -0.0000    -0.000    -0.000    -0.000  0.4999  0.8418  0.2038
     3 C(13)  Bbb    -0.0000    -0.000    -0.000    -0.000  0.8117 -0.5374  0.2288
              Bcc     0.0000     0.000     0.000     0.000 -0.3021 -0.0510  0.9519
 
              Baa    -0.0000    -0.000    -0.000    -0.000 -0.2634 -0.1649  0.9505
     4 C(13)  Bbb     0.0000     0.000     0.000     0.000 -0.5442  0.8389 -0.0052
              Bcc     0.0000     0.000     0.000     0.000  0.7965  0.5187  0.3107
 
              Baa    -0.0000    -0.000    -0.000    -0.000  0.9113 -0.3411  0.2308
     5 C(13)  Bbb    -0.0000    -0.000    -0.000    -0.000  0.3073  0.9362  0.1705
              Bcc     0.0000     0.000     0.000     0.000 -0.2742 -0.0844  0.9580
 
              Baa    -0.0000    -0.000    -0.000    -0.000 -0.2701 -0.0492  0.9616
     6 C(13)  Bbb     0.0000     0.000     0.000     0.000  0.9628 -0.0127  0.2698
              Bcc     0.0000     0.000     0.000     0.000 -0.0011  0.9987  0.0508
 
              Baa    -0.0000    -0.000    -0.000    -0.000  0.8196  0.5144  0.2521
     7 H(1)   Bbb     0.0000     0.000     0.000     0.000 -0.2645 -0.0505  0.9631
              Bcc     0.0000     0.000     0.000     0.000 -0.5082  0.8560 -0.0947
 
              Baa    -0.0000    -0.000    -0.000    -0.000  0.3642  0.9165  0.1654
     8 H(1)   Bbb     0.0000     0.000     0.000     0.000 -0.3835 -0.0143  0.9234
              Bcc     0.0000     0.000     0.000     0.000  0.8487 -0.3997  0.3463
 
              Baa    -0.0000    -0.000    -0.000    -0.000 -0.5539  0.8142 -0.1739
     9 H(1)   Bbb     0.0000     0.000     0.000     0.000 -0.1509  0.1072  0.9827
              Bcc     0.0000     0.000     0.000     0.000  0.8188  0.5706  0.0635
 
              Baa    -0.0000    -0.000    -0.000    -0.000  0.8600 -0.4654  0.2096
    10 H(1)   Bbb     0.0000     0.000     0.000     0.000 -0.2827 -0.0924  0.9548
              Bcc     0.0000     0.000     0.000     0.000  0.4249  0.8803  0.2110
 
              Baa    -0.0000    -0.000    -0.000    -0.000  0.9623  0.0225  0.2711
    11 H(1)   Bbb     0.0000     0.000     0.000     0.000 -0.2695 -0.0571  0.9613
              Bcc     0.0000     0.000     0.000     0.000 -0.0371  0.9981  0.0489
 
              Baa    -0.0000    -0.000    -0.000    -0.000 -0.5767  0.8107 -0.1009
    12 C(13)  Bbb    -0.0000    -0.000    -0.000    -0.000  0.6807  0.4086 -0.6080
              Bcc     0.0000     0.000     0.000     0.000  0.4517  0.4193  0.7875
 
              Baa    -0.0000    -0.000    -0.000    -0.000  0.4731  0.4224  0.7731
    13 C(13)  Bbb     0.0000     0.000     0.000     0.000  0.4411  0.6461 -0.6229
              Bcc     0.0000     0.000     0.000     0.000  0.7626 -0.6357 -0.1194
 
              Baa    -0.0000    -0.000    -0.000    -0.000  0.4719  0.4217  0.7742
    14 C(13)  Bbb     0.0000     0.000     0.000     0.000  0.8665 -0.0598 -0.4956
              Bcc     0.0000     0.000     0.000     0.000 -0.1627  0.9047 -0.3937
 
              Baa    -0.0000    -0.000    -0.000    -0.000 -0.1852  0.9061 -0.3803
    15 C(13)  Bbb    -0.0000    -0.000    -0.000    -0.000  0.8733 -0.0257 -0.4866
              Bcc     0.0000     0.000     0.000     0.000  0.4507  0.4222  0.7865
 
              Baa    -0.0000    -0.000    -0.000    -0.000  0.3725  0.7157 -0.5907
    16 H(1)   Bbb     0.0000     0.000     0.000     0.000  0.4768  0.3985  0.7835
              Bcc     0.0000     0.000     0.000     0.000  0.7962 -0.5735 -0.1928
 
              Baa    -0.0000    -0.000    -0.000    -0.000  0.8035 -0.5774 -0.1452
    17 C(13)  Bbb    -0.0000    -0.000    -0.000    -0.000  0.3919  0.6965 -0.6012
              Bcc     0.0000     0.000     0.000     0.000  0.4482  0.4261  0.7858
 
              Baa    -0.0000    -0.000    -0.000    -0.000  0.8638 -0.0704 -0.4989
    18 H(1)   Bbb     0.0000     0.000     0.000     0.000  0.4865  0.3742  0.7895
              Bcc     0.0000     0.000     0.000     0.000 -0.1311  0.9247 -0.3574
 
              Baa    -0.0000    -0.000    -0.000    -0.000  0.4441  0.4213  0.7908
    19 C(13)  Bbb     0.0000     0.000     0.000     0.000 -0.5771  0.8096 -0.1072
              Bcc     0.0000     0.000     0.000     0.000  0.6854  0.4087 -0.6026
 
              Baa    -0.0000    -0.000    -0.000    -0.000 -0.1379  0.9010 -0.4113
    20 H(1)   Bbb     0.0000     0.000     0.000     0.000  0.4527  0.4267  0.7830
              Bcc     0.0000     0.000     0.000     0.000  0.8810 -0.0782 -0.4667
 
              Baa    -0.0000    -0.000    -0.000    -0.000  0.8309 -0.5261 -0.1811
    21 H(1)   Bbb     0.0000     0.000     0.000     0.000  0.4423  0.4272  0.7886
              Bcc     0.0000     0.000     0.000     0.000  0.3375  0.7354 -0.5876
 
              Baa    -0.0000    -0.000    -0.000    -0.000 -0.5629  0.8159 -0.1321
    22 H(1)   Bbb     0.0000     0.000     0.000     0.000  0.4396  0.4309  0.7881
              Bcc     0.0000     0.000     0.000     0.000  0.6999  0.3856 -0.6012
 
              Baa    -0.0000    -0.000    -0.000    -0.000 -0.1340 -0.2928  0.9467
    23 S(33)  Bbb     0.0000     0.000     0.000     0.000  0.8424  0.4695  0.2645
              Bcc     0.0000     0.000     0.000     0.000 -0.5220  0.8329  0.1838
 
              Baa    -0.0000     0.000     0.000     0.000 -0.2644 -0.5993  0.7556
    24 O(17)  Bbb     0.0000    -0.000    -0.000    -0.000  0.9629 -0.2085  0.1716
              Bcc     0.0000    -0.000    -0.000    -0.000  0.0547  0.7729  0.6322
 
              Baa    -0.0000     0.000     0.000     0.000  0.0066 -0.1251  0.9921
    25 O(17)  Bbb    -0.0000     0.000     0.000     0.000  0.9977  0.0671  0.0018
              Bcc     0.0000    -0.000    -0.000    -0.000 -0.0668  0.9899  0.1252
 
              Baa    -0.0000    -0.000    -0.000    -0.000 -0.5116 -0.2216  0.8301
    26 C(13)  Bbb     0.0000     0.000     0.000     0.000 -0.4268  0.9041 -0.0217
              Bcc     0.0000     0.000     0.000     0.000  0.7457  0.3654  0.5571
 
              Baa    -0.0000    -0.000    -0.000    -0.000  0.7050 -0.6718  0.2271
    27 C(13)  Bbb    -0.0000    -0.000    -0.000    -0.000  0.5076  0.7017  0.5000
              Bcc     0.0000     0.000     0.000     0.000 -0.4953 -0.2372  0.8357
 
              Baa    -0.0000    -0.000    -0.000    -0.000 -0.1364  0.9688  0.2068
    28 C(13)  Bbb    -0.0000    -0.000    -0.000    -0.000  0.8606  0.0125  0.5091
              Bcc     0.0000     0.000     0.000     0.000 -0.4906 -0.2474  0.8355
 
              Baa    -0.0000    -0.000    -0.000    -0.000 -0.4891 -0.2547  0.8342
    29 C(13)  Bbb     0.0000     0.000     0.000     0.000  0.8712 -0.0973  0.4811
              Bcc     0.0000     0.000     0.000     0.000 -0.0414  0.9621  0.2695
 
              Baa    -0.0000    -0.000    -0.000    -0.000  0.7335 -0.5749  0.3626
    30 H(1)   Bbb    -0.0000    -0.000    -0.000    -0.000 -0.5520 -0.1924  0.8114
              Bcc     0.0000     0.000     0.000     0.000  0.3967  0.7953  0.4585
 
              Baa    -0.0000    -0.000    -0.000    -0.000 -0.5016 -0.2735  0.8207
    31 C(13)  Bbb     0.0000     0.000     0.000     0.000  0.3490  0.8041  0.4812
              Bcc     0.0000     0.000     0.000     0.000  0.7915 -0.5279  0.3079
 
              Baa    -0.0000    -0.000    -0.000    -0.000 -0.0390  0.9847  0.1697
    32 H(1)   Bbb     0.0000     0.000     0.000     0.000 -0.6931 -0.1490  0.7053
              Bcc     0.0000     0.000     0.000     0.000  0.7198 -0.0902  0.6883
 
              Baa    -0.0000    -0.000    -0.000    -0.000  0.6544  0.5224  0.5466
    33 C(13)  Bbb    -0.0000    -0.000    -0.000    -0.000 -0.5740  0.8139 -0.0906
              Bcc     0.0000     0.000     0.000     0.000 -0.4922 -0.2544  0.8325
 
              Baa    -0.0000    -0.000    -0.000    -0.000  0.8768 -0.1006  0.4702
    34 H(1)   Bbb     0.0000     0.000     0.000     0.000 -0.4789 -0.2704  0.8352
              Bcc     0.0000     0.000     0.000     0.000 -0.0432  0.9575  0.2853
 
              Baa    -0.0000    -0.000    -0.000    -0.000  0.3819  0.7778  0.4992
    35 H(1)   Bbb     0.0000     0.000     0.000     0.000 -0.5697 -0.2272  0.7899
              Bcc     0.0000     0.000     0.000     0.000  0.7278 -0.5860  0.3563
 
              Baa    -0.0000    -0.000    -0.000    -0.000 -0.3797  0.9245  0.0330
    36 C(13)  Bbb     0.0000     0.000     0.000     0.000  0.8151  0.3175  0.4845
              Bcc     0.0000     0.000     0.000     0.000 -0.4375 -0.2109  0.8742
 
              Baa    -0.0000    -0.000    -0.000    -0.000  0.9133  0.3495 -0.2092
    37 H(1)   Bbb    -0.0000    -0.000    -0.000    -0.000  0.1560  0.1743  0.9723
              Bcc     0.0000     0.000     0.000     0.000 -0.3762  0.9206 -0.1047
 
              Baa    -0.0000    -0.000    -0.000    -0.000  0.4178  0.8689  0.2655
    38 H(1)   Bbb     0.0000     0.000     0.000     0.000 -0.6228  0.0612  0.7800
              Bcc     0.0000     0.000     0.000     0.000  0.6614 -0.4913  0.5667
 
              Baa    -0.0000    -0.000    -0.000    -0.000  0.5158  0.0367  0.8559
    39 H(1)   Bbb    -0.0000    -0.000    -0.000    -0.000  0.8505  0.0976 -0.5168
              Bcc     0.0000     0.000     0.000     0.000 -0.1025  0.9945  0.0191
 
              Baa    -0.0000    -0.000    -0.000    -0.000  0.6921 -0.6901 -0.2114
    40 N(14)  Bbb     0.0000     0.000     0.000     0.000  0.7203  0.6791  0.1413
              Bcc     0.0000     0.000     0.000     0.000  0.0460 -0.2501  0.9671
 
              Baa    -0.0000    -0.000    -0.000    -0.000  0.9317  0.1196  0.3430
    41 H(1)   Bbb     0.0000     0.000     0.000     0.000 -0.0740  0.9870 -0.1430
              Bcc     0.0000     0.000     0.000     0.000 -0.3556  0.1078  0.9284
 
              Baa    -0.0000    -0.000    -0.000    -0.000 -0.0782  0.3611  0.9292
    42 C(13)  Bbb     0.0000     0.000     0.000     0.000  0.7869 -0.5500  0.2800
              Bcc     0.0000     0.000     0.000     0.000  0.6122  0.7531 -0.2411
 
              Baa    -0.0000    -0.000    -0.000    -0.000  0.4587  0.1857  0.8690
    43 C(13)  Bbb    -0.0000    -0.000    -0.000    -0.000 -0.1129  0.9822 -0.1503
              Bcc     0.0000     0.000     0.000     0.000  0.8814  0.0292 -0.4715
 
              Baa    -0.0000    -0.000    -0.000    -0.000  0.0162  0.2273  0.9737
    44 C(13)  Bbb     0.0000     0.000     0.000     0.000  0.9750  0.2123 -0.0657
              Bcc     0.0000     0.000     0.000     0.000 -0.2216  0.9504 -0.2181
 
              Baa    -0.0000    -0.000    -0.000    -0.000 -0.4691  0.8537 -0.2263
    45 C(13)  Bbb    -0.0000    -0.000    -0.000    -0.000  0.8792  0.4756 -0.0286
              Bcc     0.0000     0.000     0.000     0.000 -0.0832  0.2124  0.9736
 
              Baa    -0.0000    -0.000    -0.000    -0.000  0.8384  0.5326 -0.1158
    46 C(13)  Bbb    -0.0000    -0.000    -0.000    -0.000 -0.5443  0.8288 -0.1295
              Bcc     0.0000     0.000     0.000     0.000  0.0270  0.1716  0.9848
 
              Baa    -0.0000    -0.000    -0.000    -0.000 -0.0059  0.2289  0.9734
    47 H(1)   Bbb    -0.0000    -0.000    -0.000    -0.000  0.9653  0.2556 -0.0543
              Bcc     0.0000     0.000     0.000     0.000 -0.2612  0.9393 -0.2225
 
              Baa    -0.0000    -0.000    -0.000    -0.000  0.9811 -0.1934 -0.0030
    48 C(13)  Bbb    -0.0000    -0.000    -0.000    -0.000  0.1858  0.9463 -0.2647
              Bcc     0.0000     0.000     0.000     0.000  0.0540  0.2591  0.9643
 
              Baa    -0.0000    -0.000    -0.000    -0.000  0.4273  0.8685 -0.2511
    49 C(13)  Bbb    -0.0000    -0.000    -0.000    -0.000  0.9038 -0.4171  0.0956
              Bcc     0.0000     0.000     0.000     0.000  0.0217  0.2678  0.9632
 
              Baa    -0.0000    -0.000    -0.000    -0.000  0.8411 -0.5322 -0.0964
    50 H(1)   Bbb    -0.0000    -0.000    -0.000    -0.000  0.3422  0.3855  0.8569
              Bcc     0.0000     0.000     0.000     0.000  0.4189  0.7537 -0.5064
 
              Baa    -0.0000    -0.000    -0.000    -0.000  0.1207  0.9733  0.1953
    51 C(13)  Bbb    -0.0000    -0.000    -0.000    -0.000  0.0291 -0.2001  0.9793
              Bcc     0.0000     0.000     0.000     0.000  0.9923 -0.1125 -0.0525
 
              Baa    -0.0000    -0.000    -0.000    -0.000  0.0623  0.5607  0.8257
    52 H(1)   Bbb    -0.0000    -0.000    -0.000    -0.000  0.0785  0.8220 -0.5641
              Bcc     0.0000     0.000     0.000     0.000  0.9950 -0.1000 -0.0072
 
              Baa    -0.0000    -0.000    -0.000    -0.000 -0.1008  0.6941  0.7128
    53 H(1)   Bbb    -0.0000    -0.000    -0.000    -0.000  0.4083  0.6822 -0.6066
              Bcc     0.0000     0.000     0.000     0.000  0.9073 -0.2299  0.3522
 
              Baa    -0.0000    -0.000    -0.000    -0.000  0.4058  0.5891  0.6988
    54 H(1)   Bbb    -0.0000    -0.000    -0.000    -0.000 -0.2288 -0.6748  0.7017
              Bcc     0.0000     0.000     0.000     0.000  0.8848 -0.4447 -0.1391
 
              Baa    -0.0000    -0.000    -0.000    -0.000  0.2566  0.9602 -0.1105
    55 C(13)  Bbb     0.0000     0.000     0.000     0.000 -0.1234  0.1459  0.9816
              Bcc     0.0000     0.000     0.000     0.000  0.9586 -0.2382  0.1559
 
              Baa    -0.0000    -0.000    -0.000    -0.000  0.4050  0.3337  0.8512
    56 H(1)   Bbb    -0.0000    -0.000    -0.000    -0.000  0.5209  0.6809 -0.5148
              Bcc     0.0000     0.000     0.000     0.000  0.7514 -0.6519 -0.1020
 
              Baa    -0.0000    -0.000    -0.000    -0.000 -0.5277 -0.4543  0.7177
    57 H(1)   Bbb    -0.0000    -0.000    -0.000    -0.000  0.1691  0.7719  0.6129
              Bcc     0.0000     0.000     0.000     0.000  0.8324 -0.4448  0.3305
 
              Baa    -0.0000    -0.000    -0.000    -0.000  0.1926  0.9654  0.1757
    58 H(1)   Bbb    -0.0000    -0.000    -0.000    -0.000 -0.1467 -0.1488  0.9779
              Bcc     0.0000     0.000     0.000     0.000  0.9702 -0.2141  0.1130
 
              Baa    -0.0000    -0.000    -0.000    -0.000 -0.3104 -0.3989  0.8629
    59 C(13)  Bbb    -0.0000    -0.000    -0.000    -0.000  0.0597  0.8977  0.4365
              Bcc     0.0000     0.000     0.000     0.000  0.9487 -0.1870  0.2548
 
              Baa    -0.0000    -0.000    -0.000    -0.000  0.7116  0.4734  0.5191
    60 H(1)   Bbb    -0.0000    -0.000    -0.000    -0.000 -0.5130 -0.1546  0.8443
              Bcc     0.0000     0.000     0.000     0.000 -0.4799  0.8672 -0.1329
 
              Baa    -0.0000    -0.000    -0.000    -0.000  0.2455  0.1179  0.9622
    61 H(1)   Bbb     0.0000     0.000     0.000     0.000  0.7457  0.6113 -0.2651
              Bcc     0.0000     0.000     0.000     0.000 -0.6194  0.7826  0.0621
 
              Baa    -0.0000    -0.000    -0.000    -0.000  0.2404  0.4966  0.8340
    62 H(1)   Bbb    -0.0000    -0.000    -0.000    -0.000  0.7042  0.5021 -0.5020
              Bcc     0.0000     0.000     0.000     0.000 -0.6680  0.7080 -0.2290
 
              Baa    -0.0000     0.000     0.000     0.000  0.3093  0.8995 -0.3086
    63 O(17)  Bbb    -0.0000     0.000     0.000     0.000  0.9476 -0.3187  0.0208
              Bcc     0.0000    -0.000    -0.000    -0.000  0.0796  0.2989  0.9510
 

 ---------------------------------------------------------------------------------

 Calling FoFJK, ICntrl=    100127 FMM=F ISym2X=0 I1Cent= 0 IOpClX= 1 NMat=1 NMatS=1 NMatT=0.
 -------------------------------------------------------------------
 Center     Atomic                   Forces (Hartrees/Bohr)
 Number     Number              X              Y              Z
 -------------------------------------------------------------------
      1        6          -0.000000658   -0.000000642    0.000001404
      2        6           0.000000134    0.000000504    0.000001077
      3        6          -0.000000524   -0.000000327    0.000000995
      4        6          -0.000000316    0.000000739    0.000001455
      5        6          -0.000000712    0.000000549    0.000002022
      6        6          -0.000000657    0.000000458    0.000002044
      7        1          -0.000000453    0.000000403    0.000001601
      8        1          -0.000000233   -0.000000260    0.000000530
      9        1          -0.000000445   -0.000000301    0.000001347
     10        1          -0.000001049   -0.000000299    0.000002272
     11        1          -0.000000495    0.000000153    0.000002571
     12        6          -0.000000526    0.000000604    0.000000035
     13        6          -0.000000189   -0.000001135    0.000000105
     14        6          -0.000000051   -0.000000028    0.000000826
     15        6          -0.000000434   -0.000000247   -0.000000643
     16        1          -0.000000590   -0.000000189   -0.000000806
     17        6           0.000000590   -0.000000105    0.000000222
     18        1           0.000000497    0.000000408    0.000000794
     19        6          -0.000000621    0.000000536   -0.000000108
     20        1          -0.000000757   -0.000000504   -0.000000738
     21        1           0.000000131    0.000000265    0.000000870
     22        1          -0.000000170   -0.000000324   -0.000000051
     23       16           0.000000099   -0.000000124   -0.000000123
     24        8          -0.000001470   -0.000000652   -0.000001010
     25        8          -0.000001667   -0.000000866   -0.000000109
     26        6          -0.000000635   -0.000000647   -0.000000154
     27        6          -0.000001276    0.000000304    0.000000023
     28        6          -0.000000421   -0.000000631   -0.000001007
     29        6          -0.000000775   -0.000000572    0.000000631
     30        1          -0.000001389   -0.000000690    0.000000491
     31        6           0.000000294    0.000000525   -0.000000262
     32        1          -0.000000258   -0.000000336   -0.000001144
     33        6          -0.000001163   -0.000000927   -0.000000684
     34        1          -0.000001160   -0.000000355    0.000000598
     35        1          -0.000000199   -0.000000680   -0.000001337
     36        6          -0.000000698   -0.000000282   -0.000000785
     37        1          -0.000000687   -0.000000397   -0.000000364
     38        1          -0.000000452   -0.000000213    0.000000215
     39        1          -0.000000108    0.000000015    0.000000105
     40        7          -0.000000320   -0.000000547    0.000000099
     41        1          -0.000000077   -0.000000112   -0.000000755
     42        6           0.000042554    0.000390867    0.001215564
     43        6           0.000000693   -0.000000039   -0.000000633
     44        6           0.000000968    0.000000429    0.000000350
     45        6           0.000000938    0.000000581   -0.000000776
     46        6           0.000000740    0.000000538   -0.000000120
     47        1           0.000000787    0.000000586    0.000000755
     48        6           0.000001048   -0.000000188   -0.000000760
     49        6          -0.000041767   -0.000389926   -0.001215708
     50        1           0.000000847    0.000000296    0.000000588
     51        6           0.000001116    0.000000273   -0.000002124
     52        1           0.000000851   -0.000000126   -0.000001832
     53        1           0.000001361    0.000000253   -0.000001690
     54        1           0.000000654   -0.000000062   -0.000001757
     55        6           0.000001201    0.000000380    0.000000255
     56        1           0.000001262    0.000000439   -0.000000343
     57        1           0.000000533    0.000000296   -0.000000148
     58        1           0.000000948    0.000000537    0.000000534
     59        6           0.000001346    0.000000229   -0.000001091
     60        1           0.000001062    0.000000365   -0.000000295
     61        1           0.000000381    0.000000154   -0.000000712
     62        1           0.000001409    0.000000398   -0.000000983
     63        8           0.000000955    0.000000649   -0.000001325
 -------------------------------------------------------------------
 Cartesian Forces:  Max     0.001215708 RMS     0.000131415
 FormGI is forming the generalized inverse of G from B-inverse, IUseBI=4.

 GradGradGradGradGradGradGradGradGradGradGradGradGradGradGradGradGradGrad
 Berny optimization.
 Internal  Forces:  Max     0.000883248 RMS     0.000054565
 Search for a saddle point.
 Step number   1 out of a maximum of  378
 All quantities printed in internal units (Hartrees-Bohrs-Radians)
 Swapping is turned off.
 Second derivative matrix not updated -- analytic derivatives used.
 ITU=  0
     Eigenvalues ---    0.00012   0.00044   0.00113   0.00124   0.00163
     Eigenvalues ---    0.00276   0.00423   0.00505   0.00653   0.00697
     Eigenvalues ---    0.00910   0.01023   0.01253   0.01304   0.01386
     Eigenvalues ---    0.01420   0.01474   0.01544   0.01584   0.01625
     Eigenvalues ---    0.01639   0.01679   0.01707   0.01751   0.01771
     Eigenvalues ---    0.01802   0.01920   0.01951   0.01962   0.02122
     Eigenvalues ---    0.02140   0.02247   0.02294   0.02304   0.02326
     Eigenvalues ---    0.02368   0.02420   0.02461   0.02505   0.02556
     Eigenvalues ---    0.02592   0.02707   0.02749   0.02766   0.02786
     Eigenvalues ---    0.02793   0.02860   0.02916   0.03442   0.03838
     Eigenvalues ---    0.03929   0.04462   0.04513   0.04639   0.04703
     Eigenvalues ---    0.05163   0.05624   0.05731   0.05763   0.05971
     Eigenvalues ---    0.05989   0.06936   0.10188   0.10357   0.10529
     Eigenvalues ---    0.11144   0.11191   0.11623   0.11783   0.11848
     Eigenvalues ---    0.11991   0.12042   0.12150   0.12162   0.12184
     Eigenvalues ---    0.12291   0.12363   0.12364   0.12415   0.12446
     Eigenvalues ---    0.12586   0.12626   0.12745   0.12909   0.13047
     Eigenvalues ---    0.13807   0.14321   0.14494   0.14604   0.14657
     Eigenvalues ---    0.14723   0.14839   0.15247   0.15554   0.15712
     Eigenvalues ---    0.16030   0.16484   0.16591   0.16908   0.16970
     Eigenvalues ---    0.17554   0.18716   0.18757   0.19028   0.19106
     Eigenvalues ---    0.19249   0.19308   0.19355   0.19479   0.19736
     Eigenvalues ---    0.19867   0.20038   0.20372   0.21773   0.21885
     Eigenvalues ---    0.23605   0.25700   0.26897   0.27505   0.28057
     Eigenvalues ---    0.29724   0.29824   0.30818   0.31216   0.31578
     Eigenvalues ---    0.31783   0.32698   0.32865   0.33174   0.33296
     Eigenvalues ---    0.33322   0.33395   0.33535   0.33749   0.33941
     Eigenvalues ---    0.34018   0.34130   0.34176   0.34614   0.34674
     Eigenvalues ---    0.34759   0.35050   0.35086   0.35649   0.35815
     Eigenvalues ---    0.35860   0.35866   0.35953   0.35988   0.36124
     Eigenvalues ---    0.36160   0.36170   0.36651   0.36745   0.36875
     Eigenvalues ---    0.36970   0.37520   0.37803   0.38232   0.39436
     Eigenvalues ---    0.40228   0.41174   0.41770   0.41983   0.42218
     Eigenvalues ---    0.43139   0.43559   0.44381   0.46642   0.46780
     Eigenvalues ---    0.46927   0.46963   0.47099   0.47192   0.50905
     Eigenvalues ---    0.51232   0.51318   0.52779   0.58992   0.61386
     Eigenvalues ---    0.65876   0.734221000.000001000.000001000.00000
     Eigenvalues --- 1000.000001000.000001000.000001000.000001000.00000
     Eigenvalues --- 1000.000001000.000001000.000001000.000001000.00000
     Eigenvalues --- 1000.000001000.000001000.000001000.000001000.00000
     Eigenvalues --- 1000.000001000.000001000.000001000.000001000.00000
     Eigenvalues --- 1000.000001000.000001000.000001000.000001000.00000
     Eigenvalues --- 1000.000001000.000001000.000001000.000001000.00000
     Eigenvalues --- 1000.000001000.000001000.000001000.000001000.00000
     Eigenvalues --- 1000.000001000.000001000.000001000.000001000.00000
     Eigenvalues --- 1000.000001000.000001000.000001000.000001000.00000
     Eigenvalues --- 1000.000001000.000001000.000001000.000001000.00000
     Eigenvalues --- 1000.000001000.000001000.000001000.000001000.00000
     Eigenvalues --- 1000.000001000.000001000.000001000.000001000.00000
     Eigenvalues --- 1000.000001000.000001000.000001000.000001000.00000
     Eigenvalues --- 1000.000001000.000001000.000001000.000001000.00000
     Eigenvalues --- 1000.000001000.000001000.000001000.000001000.00000
     Eigenvalues --- 1000.000001000.000001000.000001000.000001000.00000
     Eigenvalues --- 1000.000001000.000001000.000001000.000001000.00000
     Eigenvalues --- 1000.000001000.000001000.000001000.000001000.00000
     Eigenvalues --- 1000.000001000.000001000.000001000.000001000.00000
     Eigenvalues --- 1000.000001000.000001000.000001000.000001000.00000
     Eigenvalues --- 1000.000001000.000001000.000001000.000001000.00000
     Eigenvalues --- 1000.000001000.000001000.000001000.000001000.00000
     Eigenvalues --- 1000.000001000.000001000.000001000.000001000.00000
     Eigenvalues --- 1000.000001000.000001000.000001000.000001000.00000
     Eigenvalues --- 1000.000001000.000001000.000001000.000001000.00000
     Eigenvalues --- 1000.000001000.000001000.000001000.000001000.00000
     Eigenvalues --- 1000.000001000.000001000.000001000.000001000.00000
     Eigenvalues --- 1000.000001000.000001000.000001000.000001000.00000
     Eigenvalues --- 1000.000001000.000001000.000001000.000001000.00000
     Eigenvalues --- 1000.000001000.000001000.000001000.000001000.00000
     Eigenvalues --- 1000.000001000.000001000.000001000.000001000.00000
     Eigenvalues --- 1000.000001000.000001000.000001000.000001000.00000
     Eigenvalues --- 1000.000001000.000001000.000001000.000001000.00000
     Eigenvalues --- 1000.000001000.000001000.000001000.000001000.00000
     Eigenvalues --- 1000.000001000.000001000.000001000.000001000.00000
     Eigenvalues --- 1000.000001000.000001000.000001000.000001000.00000
     Eigenvalues --- 1000.000001000.000001000.000001000.000001000.00000
     Eigenvalues --- 1000.000001000.000001000.000001000.000001000.00000
     Eigenvalues --- 1000.000001000.000001000.000001000.00000
 Eigenvectors required to have negative eigenvalues:
                         D100      D102      D101      D103      D105
   1                    0.42481   0.41560   0.40897   0.40712   0.39790
                         D104       D95       D99       D93       D97
   1                    0.39127  -0.02201   0.02093  -0.02065   0.02037
 RFO step:  Lambda0=1.175693898D-04 Lambda= 0.00000000D+00.
 Linear search not attempted -- option 19 set.
 Iteration  1 RMS(Cart)=  0.00000133 RMS(Int)=  0.00000000
 Iteration  2 RMS(Cart)=  0.00000000 RMS(Int)=  0.00000000
 Iteration  1 RMS(Cart)=  0.00000000 RMS(Int)=  0.00000000
 Variable       Old X    -DE/DX   Delta X   Delta X   Delta X     New X
                                 (Linear)    (Quad)   (Total)
    R1        2.62516   0.00000   0.00000   0.00000   0.00000   2.62516
    R2        2.64083  -0.00000   0.00000  -0.00000  -0.00000   2.64083
    R3        2.05222   0.00000   0.00000   0.00000   0.00000   2.05222
    R4        2.66577  -0.00000   0.00000  -0.00000  -0.00000   2.66577
    R5        2.04207  -0.00000   0.00000  -0.00000  -0.00000   2.04206
    R6        2.66069  -0.00000   0.00000  -0.00000  -0.00000   2.66069
    R7        2.79790  -0.00000   0.00000  -0.00000  -0.00000   2.79789
    R8        2.63248   0.00000   0.00000   0.00000   0.00000   2.63248
    R9        2.04531   0.00000   0.00000   0.00000   0.00000   2.04531
   R10        2.63668  -0.00000   0.00000  -0.00000  -0.00000   2.63668
   R11        2.05204   0.00000   0.00000   0.00000   0.00000   2.05204
   R12        2.05205  -0.00000   0.00000  -0.00000  -0.00000   2.05205
   R13        2.65730   0.00000   0.00000   0.00000   0.00000   2.65730
   R14        2.66331  -0.00001   0.00000   0.00000   0.00000   2.66331
   R15        2.81217   0.00004   0.00000  -0.00000  -0.00000   2.81217
   R16        2.63698   0.00000   0.00000  -0.00000  -0.00000   2.63698
   R17        2.04923   0.00000   0.00000   0.00000   0.00000   2.04923
   R18        2.62711  -0.00000   0.00000   0.00000   0.00000   2.62711
   R19        2.05028  -0.00005   0.00000  -0.00000  -0.00000   2.05028
   R20        2.63391  -0.00000   0.00000  -0.00000  -0.00000   2.63391
   R21        2.05190  -0.00000   0.00000  -0.00000  -0.00000   2.05190
   R22        2.64291  -0.00000   0.00000  -0.00000  -0.00000   2.64291
   R23        2.05220   0.00000   0.00000   0.00000   0.00000   2.05221
   R24        4.30626  -0.00014   0.00000   0.00000   0.00000   4.30626
   R25        2.05158   0.00000   0.00000   0.00000   0.00000   2.05158
   R26        2.77430  -0.00000   0.00000  -0.00000  -0.00000   2.77429
   R27        2.76287   0.00000   0.00000   0.00000   0.00000   2.76287
   R28        3.37064  -0.00000   0.00000  -0.00000  -0.00000   3.37064
   R29        3.25062   0.00000   0.00000   0.00000   0.00000   3.25062
   R30        2.63425   0.00000   0.00000   0.00000   0.00000   2.63425
   R31        2.63719  -0.00000   0.00000  -0.00000  -0.00000   2.63719
   R32        2.63432  -0.00000   0.00000  -0.00000  -0.00000   2.63432
   R33        2.04809   0.00000   0.00000   0.00000   0.00000   2.04809
   R34        2.62795   0.00000   0.00000   0.00000   0.00000   2.62795
   R35        2.04665  -0.00000   0.00000  -0.00000  -0.00000   2.04665
   R36        2.64870  -0.00000   0.00000  -0.00000  -0.00000   2.64870
   R37        2.05315  -0.00000   0.00000  -0.00000  -0.00000   2.05315
   R38        2.65293   0.00000   0.00000   0.00000   0.00000   2.65293
   R39        2.05161  -0.00000   0.00000  -0.00000  -0.00000   2.05161
   R40        2.85118   0.00000   0.00000   0.00000   0.00000   2.85118
   R41        2.07232  -0.00000   0.00000  -0.00000  -0.00000   2.07232
   R42        2.06620  -0.00000   0.00000  -0.00000  -0.00000   2.06620
   R43        2.06816   0.00000   0.00000   0.00000   0.00000   2.06816
   R44        1.92519  -0.00011   0.00000  -0.00000  -0.00000   1.92519
   R45        2.64391   0.00003   0.00000  -0.00000  -0.00000   2.64391
   R46        4.52961  -0.00015   0.00000  -0.00000  -0.00000   4.52961
   R47        4.38099  -0.00010   0.00000   0.00000   0.00000   4.38100
   R48        4.41992  -0.00088   0.00000   0.00000  -0.00000   4.41992
   R49        2.60083   0.00004   0.00000   0.00000   0.00000   2.60083
   R50        2.72436   0.00002   0.00000  -0.00000  -0.00000   2.72436
   R51        2.85314   0.00000   0.00000   0.00000   0.00000   2.85314
   R52        2.57259  -0.00000   0.00000   0.00000   0.00000   2.57259
   R53        2.05299   0.00000   0.00000   0.00000   0.00000   2.05299
   R54        2.70020   0.00000   0.00000   0.00000   0.00000   2.70020
   R55        2.79530   0.00000   0.00000  -0.00000  -0.00000   2.79530
   R56        2.84638   0.00000   0.00000   0.00000   0.00000   2.84638
   R57        2.78788  -0.00000   0.00000   0.00000   0.00000   2.78788
   R58        2.83439  -0.00000   0.00000  -0.00000  -0.00000   2.83439
   R59        2.35224   0.00000   0.00000   0.00000   0.00000   2.35224
   R60        2.04825  -0.00003   0.00000   0.00000   0.00000   2.04825
   R61        2.06090  -0.00000   0.00000  -0.00000  -0.00000   2.06090
   R62        2.07452   0.00000   0.00000   0.00000   0.00000   2.07452
   R63        2.07128  -0.00000   0.00000  -0.00000  -0.00000   2.07128
   R64        2.06818  -0.00000   0.00000  -0.00000  -0.00000   2.06818
   R65        2.07095   0.00000   0.00000   0.00000   0.00000   2.07095
   R66        2.06672   0.00000   0.00000   0.00000   0.00000   2.06672
   R67        2.06139   0.00000   0.00000   0.00000   0.00000   2.06139
   R68        2.07055  -0.00000   0.00000  -0.00000  -0.00000   2.07055
   R69        2.07101   0.00000   0.00000   0.00000   0.00000   2.07101
    A1        2.09957   0.00000   0.00000   0.00000   0.00000   2.09957
    A2        2.08265  -0.00000   0.00000  -0.00000  -0.00000   2.08264
    A3        2.10094   0.00000   0.00000   0.00000   0.00000   2.10094
    A4        2.11441  -0.00000   0.00000  -0.00000  -0.00000   2.11441
    A5        2.08957   0.00000   0.00000   0.00000   0.00000   2.08957
    A6        2.07920   0.00000   0.00000   0.00000   0.00000   2.07920
    A7        2.05663   0.00000   0.00000   0.00000   0.00000   2.05663
    A8        2.08747  -0.00000   0.00000  -0.00000  -0.00000   2.08747
    A9        2.13744   0.00000   0.00000   0.00000   0.00000   2.13744
   A10        2.10911   0.00000   0.00000   0.00000   0.00000   2.10911
   A11        2.09525   0.00000   0.00000   0.00000   0.00000   2.09525
   A12        2.07795  -0.00000   0.00000  -0.00000  -0.00000   2.07795
   A13        2.10373  -0.00000   0.00000  -0.00000  -0.00000   2.10373
   A14        2.08307  -0.00000   0.00000  -0.00000  -0.00000   2.08307
   A15        2.09622   0.00000   0.00000   0.00000   0.00000   2.09622
   A16        2.08250  -0.00000   0.00000  -0.00000  -0.00000   2.08250
   A17        2.10077   0.00000   0.00000   0.00000   0.00000   2.10077
   A18        2.09981  -0.00000   0.00000  -0.00000  -0.00000   2.09981
   A19        2.06101  -0.00002   0.00000  -0.00000  -0.00000   2.06101
   A20        2.09791  -0.00002   0.00000   0.00000   0.00000   2.09791
   A21        2.12418   0.00004   0.00000   0.00000   0.00000   2.12418
   A22        2.10690   0.00001   0.00000   0.00000   0.00000   2.10690
   A23        2.09682  -0.00000   0.00000  -0.00000  -0.00000   2.09682
   A24        2.07941  -0.00000   0.00000  -0.00000  -0.00000   2.07941
   A25        2.11252   0.00002   0.00000   0.00000   0.00000   2.11252
   A26        2.08483  -0.00005   0.00000  -0.00000  -0.00000   2.08483
   A27        2.08568   0.00003   0.00000   0.00000   0.00000   2.08568
   A28        2.10353   0.00000   0.00000  -0.00000  -0.00000   2.10353
   A29        2.08212  -0.00000   0.00000   0.00000   0.00000   2.08212
   A30        2.09752  -0.00000   0.00000   0.00000   0.00000   2.09752
   A31        2.09888  -0.00001   0.00000  -0.00000  -0.00000   2.09888
   A32        2.08744   0.00000   0.00000  -0.00000  -0.00000   2.08744
   A33        2.09682   0.00000   0.00000   0.00000   0.00000   2.09682
   A34        1.75320  -0.00008   0.00000  -0.00000  -0.00000   1.75320
   A35        2.08353  -0.00000   0.00000   0.00000   0.00000   2.08353
   A36        2.10099   0.00000   0.00000   0.00000   0.00000   2.10099
   A37        2.09867   0.00000   0.00000  -0.00000  -0.00000   2.09867
   A38        2.13193   0.00000   0.00000   0.00000   0.00000   2.13193
   A39        1.89044  -0.00000   0.00000  -0.00000  -0.00000   1.89044
   A40        1.80175   0.00000   0.00000   0.00000   0.00000   1.80175
   A41        1.90530  -0.00000   0.00000  -0.00000  -0.00000   1.90530
   A42        1.89541  -0.00000   0.00000  -0.00000  -0.00000   1.89541
   A43        1.81134   0.00000   0.00000   0.00000   0.00000   1.81134
   A44        2.08288   0.00000   0.00000   0.00000   0.00000   2.08288
   A45        2.07531  -0.00000   0.00000   0.00000   0.00000   2.07531
   A46        2.12446  -0.00000   0.00000  -0.00000  -0.00000   2.12446
   A47        2.07084   0.00000   0.00000   0.00000   0.00000   2.07084
   A48        2.09027  -0.00000   0.00000  -0.00000  -0.00000   2.09027
   A49        2.12194  -0.00000   0.00000   0.00000   0.00000   2.12194
   A50        2.07112   0.00000   0.00000   0.00000   0.00000   2.07112
   A51        2.11759  -0.00000   0.00000  -0.00000  -0.00000   2.11759
   A52        2.09365  -0.00000   0.00000  -0.00000  -0.00000   2.09365
   A53        2.11386   0.00000   0.00000   0.00000   0.00000   2.11386
   A54        2.08272   0.00000   0.00000   0.00000   0.00000   2.08272
   A55        2.08658  -0.00000   0.00000  -0.00000  -0.00000   2.08658
   A56        2.11477  -0.00000   0.00000  -0.00000  -0.00000   2.11477
   A57        2.07333   0.00000   0.00000   0.00000   0.00000   2.07333
   A58        2.09483   0.00000   0.00000   0.00000   0.00000   2.09483
   A59        2.07123   0.00000   0.00000   0.00000   0.00000   2.07123
   A60        2.11261   0.00000   0.00000   0.00000   0.00000   2.11261
   A61        2.09931  -0.00000   0.00000  -0.00000  -0.00000   2.09931
   A62        1.93286   0.00000   0.00000   0.00000   0.00000   1.93286
   A63        1.94930  -0.00000   0.00000   0.00000   0.00000   1.94930
   A64        1.94074  -0.00000   0.00000  -0.00000  -0.00000   1.94074
   A65        1.87781   0.00000   0.00000   0.00000   0.00000   1.87781
   A66        1.87032  -0.00000   0.00000  -0.00000  -0.00000   1.87032
   A67        1.88971   0.00000   0.00000  -0.00000  -0.00000   1.88971
   A68        1.89418  -0.00002   0.00000  -0.00000  -0.00000   1.89418
   A69        2.19335   0.00002   0.00000  -0.00000  -0.00000   2.19335
   A70        2.00609   0.00000   0.00000   0.00000   0.00000   2.00609
   A71        1.97509  -0.00012   0.00000   0.00000   0.00000   1.97509
   A72        2.25603  -0.00012   0.00000   0.00000   0.00000   2.25603
   A73        2.10724   0.00000   0.00000   0.00000   0.00000   2.10724
   A74        2.00386  -0.00002   0.00000   0.00000   0.00000   2.00386
   A75        1.85874  -0.00006   0.00000  -0.00000  -0.00000   1.85874
   A76        2.03848  -0.00003   0.00000  -0.00000  -0.00000   2.03848
   A77        1.69020   0.00006   0.00000  -0.00000  -0.00000   1.69019
   A78        1.64432   0.00008   0.00000  -0.00000  -0.00000   1.64432
   A79        1.54818  -0.00006   0.00000   0.00000   0.00000   1.54818
   A80        1.91407   0.00005   0.00000  -0.00000  -0.00000   1.91407
   A81        2.08621  -0.00001   0.00000  -0.00000  -0.00000   2.08621
   A82        2.10537   0.00001   0.00000  -0.00000  -0.00000   2.10537
   A83        2.09106  -0.00001   0.00000   0.00000   0.00000   2.09106
   A84        2.09171  -0.00000   0.00000  -0.00000  -0.00000   2.09171
   A85        2.12374   0.00001   0.00000  -0.00000  -0.00000   2.12374
   A86        2.06381  -0.00001   0.00000   0.00000   0.00000   2.06381
   A87        1.57853  -0.00004   0.00000  -0.00000  -0.00000   1.57853
   A88        1.84935   0.00006   0.00000  -0.00000  -0.00000   1.84935
   A89        2.10047  -0.00000   0.00000  -0.00000  -0.00000   2.10047
   A90        2.13586   0.00001   0.00000   0.00000   0.00000   2.13586
   A91        2.04602  -0.00000   0.00000  -0.00000  -0.00000   2.04602
   A92        2.08296  -0.00000   0.00000   0.00000   0.00000   2.08296
   A93        2.15391  -0.00000   0.00000  -0.00000  -0.00000   2.15391
   A94        2.04621   0.00000   0.00000  -0.00000  -0.00000   2.04621
   A95        2.05536   0.00000   0.00000  -0.00000  -0.00000   2.05536
   A96        2.12528  -0.00000   0.00000   0.00000   0.00000   2.12528
   A97        2.10239  -0.00000   0.00000  -0.00000  -0.00000   2.10239
   A98        1.74176   0.00009   0.00000   0.00000   0.00000   1.74176
   A99        1.73855  -0.00003   0.00000   0.00000   0.00000   1.73855
   A100       1.63733   0.00002   0.00000   0.00000   0.00000   1.63733
   A101       2.07905  -0.00001   0.00000   0.00000   0.00000   2.07905
   A102       2.05231  -0.00003   0.00000  -0.00000  -0.00000   2.05231
   A103       2.05770   0.00001   0.00000  -0.00000  -0.00000   2.05770
   A104       2.24898   0.00006   0.00000  -0.00000  -0.00000   2.24898
   A105       1.91339  -0.00000   0.00000  -0.00000  -0.00000   1.91339
   A106       1.94179  -0.00000   0.00000  -0.00000  -0.00000   1.94179
   A107       1.95271   0.00000   0.00000   0.00000   0.00000   1.95271
   A108       1.89041   0.00000   0.00000  -0.00000  -0.00000   1.89041
   A109       1.90072   0.00000   0.00000   0.00000   0.00000   1.90072
   A110       1.86298   0.00000   0.00000   0.00000   0.00000   1.86298
   A111       1.93284   0.00000   0.00000   0.00000   0.00000   1.93284
   A112       1.92809   0.00000   0.00000   0.00000   0.00000   1.92809
   A113       1.94384  -0.00000   0.00000  -0.00000  -0.00000   1.94384
   A114       1.85076  -0.00000   0.00000  -0.00000  -0.00000   1.85076
   A115       1.90902   0.00000   0.00000   0.00000   0.00000   1.90902
   A116       1.89664  -0.00000   0.00000  -0.00000  -0.00000   1.89664
   A117       1.95193   0.00000   0.00000   0.00000   0.00000   1.95193
   A118       1.94809   0.00000   0.00000   0.00000   0.00000   1.94809
   A119       1.92807   0.00000   0.00000  -0.00000  -0.00000   1.92807
   A120       1.87227  -0.00000   0.00000   0.00000   0.00000   1.87227
   A121       1.89317  -0.00000   0.00000  -0.00000  -0.00000   1.89317
   A122       1.86699   0.00000   0.00000   0.00000   0.00000   1.86699
    D1       -0.00760   0.00000   0.00000  -0.00000  -0.00000  -0.00760
    D2        3.13741   0.00000   0.00000   0.00000   0.00000   3.13741
    D3       -3.14106  -0.00000   0.00000  -0.00000  -0.00000  -3.14106
    D4        0.00395  -0.00000   0.00000  -0.00000  -0.00000   0.00395
    D5       -0.01291  -0.00000   0.00000  -0.00000  -0.00000  -0.01291
    D6       -3.13904  -0.00000   0.00000  -0.00000  -0.00000  -3.13904
    D7        3.12047   0.00000   0.00000   0.00000   0.00000   3.12047
    D8       -0.00567   0.00000   0.00000   0.00000   0.00000  -0.00567
    D9        0.02801   0.00000   0.00000   0.00000   0.00000   0.02801
   D10        3.10930  -0.00000   0.00000  -0.00000  -0.00000   3.10930
   D11       -3.11698   0.00000   0.00000   0.00000   0.00000  -3.11698
   D12       -0.03569  -0.00000   0.00000  -0.00000  -0.00000  -0.03570
   D13       -0.02858  -0.00000   0.00000  -0.00000  -0.00000  -0.02858
   D14        3.06773  -0.00000   0.00000  -0.00000  -0.00000   3.06773
   D15       -3.10803   0.00000   0.00000   0.00000   0.00000  -3.10803
   D16       -0.01171   0.00000   0.00000   0.00000   0.00000  -0.01171
   D17        3.12263   0.00004   0.00000  -0.00000  -0.00000   3.12263
   D18       -0.56855  -0.00005   0.00000   0.00000   0.00000  -0.56855
   D19        1.22543   0.00001   0.00000   0.00000   0.00000   1.22543
   D20       -0.08217   0.00004   0.00000  -0.00000  -0.00000  -0.08217
   D21        2.50983  -0.00005   0.00000  -0.00000  -0.00000   2.50983
   D22       -1.97937   0.00001   0.00000  -0.00000  -0.00000  -1.97937
   D23        0.00889   0.00000   0.00000   0.00000   0.00000   0.00889
   D24        3.13071   0.00000   0.00000   0.00000   0.00000   3.13071
   D25       -3.08787   0.00000   0.00000   0.00000   0.00000  -3.08787
   D26        0.03396   0.00000   0.00000   0.00000   0.00000   0.03396
   D27        0.01228  -0.00000   0.00000  -0.00000  -0.00000   0.01228
   D28        3.13842  -0.00000   0.00000  -0.00000  -0.00000   3.13842
   D29       -3.10940  -0.00000   0.00000  -0.00000  -0.00000  -3.10940
   D30        0.01674   0.00000   0.00000   0.00000   0.00000   0.01674
   D31        0.00033  -0.00004   0.00000   0.00000   0.00000   0.00033
   D32        3.13046  -0.00001   0.00000   0.00000   0.00000   3.13046
   D33        3.12825  -0.00003   0.00000   0.00000   0.00000   3.12825
   D34       -0.02480  -0.00001   0.00000   0.00000   0.00000  -0.02480
   D35       -0.00275   0.00005   0.00000  -0.00000  -0.00000  -0.00275
   D36        3.12001   0.00007   0.00000  -0.00000  -0.00000   3.12001
   D37       -3.13045   0.00004   0.00000  -0.00000  -0.00000  -3.13045
   D38       -0.00769   0.00007   0.00000  -0.00000  -0.00000  -0.00769
   D39        2.27747   0.00005   0.00000   0.00000   0.00000   2.27748
   D40       -0.30415   0.00014   0.00000  -0.00000  -0.00000  -0.30415
   D41       -2.01893   0.00003   0.00000   0.00000   0.00000  -2.01893
   D42       -0.87830   0.00006   0.00000   0.00000   0.00000  -0.87830
   D43        2.82326   0.00015   0.00000  -0.00000  -0.00000   2.82326
   D44        1.10849   0.00003   0.00000   0.00000   0.00000   1.10849
   D45       -0.00001   0.00001   0.00000  -0.00000  -0.00000  -0.00001
   D46        3.13622   0.00001   0.00000   0.00000   0.00000   3.13622
   D47       -3.13025  -0.00001   0.00000  -0.00000  -0.00000  -3.13025
   D48        0.00597  -0.00001   0.00000   0.00000   0.00000   0.00597
   D49        0.00485  -0.00003   0.00000   0.00000   0.00000   0.00485
   D50        3.13607  -0.00000   0.00000  -0.00000  -0.00000   3.13607
   D51       -3.11791  -0.00005   0.00000  -0.00000  -0.00000  -3.11791
   D52        0.01332  -0.00003   0.00000  -0.00000  -0.00000   0.01331
   D53       -0.94425   0.00011   0.00000  -0.00000  -0.00000  -0.94425
   D54        2.17880   0.00014   0.00000  -0.00000  -0.00000   2.17880
   D55        0.00204   0.00002   0.00000   0.00000   0.00000   0.00204
   D56       -3.13900   0.00000   0.00000   0.00000   0.00000  -3.13900
   D57       -3.13414   0.00001   0.00000  -0.00000  -0.00000  -3.13414
   D58        0.00801  -0.00001   0.00000  -0.00000  -0.00000   0.00801
   D59       -0.00444  -0.00001   0.00000  -0.00000  -0.00000  -0.00444
   D60        3.13660   0.00001   0.00000  -0.00000  -0.00000   3.13660
   D61       -3.13560  -0.00003   0.00000   0.00000   0.00000  -3.13560
   D62        0.00544  -0.00001   0.00000   0.00000   0.00000   0.00544
   D63        0.86049  -0.00002   0.00000   0.00000   0.00000   0.86049
   D64        2.43310  -0.00000   0.00000  -0.00000  -0.00000   2.43310
   D65       -0.74323  -0.00000   0.00000  -0.00000  -0.00000  -0.74323
   D66        0.07497  -0.00000   0.00000  -0.00000  -0.00000   0.07497
   D67       -3.10136   0.00000   0.00000  -0.00000  -0.00000  -3.10136
   D68       -1.94356   0.00000   0.00000  -0.00000  -0.00000  -1.94356
   D69        1.16330   0.00000   0.00000   0.00000   0.00000   1.16330
   D70        0.21423  -0.00000   0.00000  -0.00000  -0.00000   0.21423
   D71       -2.26411   0.00000   0.00000  -0.00000  -0.00000  -2.26411
   D72        2.50041  -0.00000   0.00000   0.00000   0.00000   2.50041
   D73        0.02208   0.00000   0.00000  -0.00000  -0.00000   0.02208
   D74       -1.75726  -0.00000   0.00000  -0.00000  -0.00000  -1.75726
   D75        2.04759   0.00000   0.00000  -0.00000  -0.00000   2.04759
   D76        3.10556  -0.00000   0.00000  -0.00000  -0.00000   3.10555
   D77       -0.01901   0.00000   0.00000   0.00000   0.00000  -0.01901
   D78       -0.00028  -0.00000   0.00000  -0.00000  -0.00000  -0.00028
   D79       -3.12485  -0.00000   0.00000   0.00000   0.00000  -3.12485
   D80       -3.09431   0.00000   0.00000   0.00000   0.00000  -3.09431
   D81        0.00339  -0.00000   0.00000  -0.00000  -0.00000   0.00339
   D82        0.01168   0.00000   0.00000   0.00000   0.00000   0.01168
   D83        3.10937   0.00000   0.00000  -0.00000  -0.00000   3.10937
   D84       -0.00798   0.00000   0.00000   0.00000   0.00000  -0.00798
   D85       -3.14155   0.00000   0.00000   0.00000   0.00000  -3.14155
   D86        3.11626  -0.00000   0.00000  -0.00000  -0.00000   3.11626
   D87       -0.01731  -0.00000   0.00000  -0.00000  -0.00000  -0.01731
   D88       -0.01512  -0.00000   0.00000  -0.00000  -0.00000  -0.01512
   D89        3.10204  -0.00000   0.00000  -0.00000  -0.00000   3.10204
   D90       -3.11343   0.00000   0.00000   0.00000   0.00000  -3.11343
   D91        0.00372   0.00000   0.00000   0.00000   0.00000   0.00372
   D92        0.00462  -0.00000   0.00000  -0.00000  -0.00000   0.00461
   D93        3.13699  -0.00000   0.00000  -0.00000  -0.00000   3.13699
   D94        3.13817   0.00000   0.00000   0.00000   0.00000   3.13817
   D95       -0.01264   0.00000   0.00000  -0.00000  -0.00000  -0.01264
   D96        0.00718  -0.00000   0.00000  -0.00000  -0.00000   0.00718
   D97       -3.12527   0.00000   0.00000   0.00000   0.00000  -3.12527
   D98       -3.10968   0.00000   0.00000  -0.00000  -0.00000  -3.10968
   D99        0.04106   0.00000   0.00000   0.00000   0.00000   0.04106
   D100      -1.77628  -0.00000   0.00000   0.00001   0.00001  -1.77628
   D101       0.31628  -0.00000   0.00000   0.00001   0.00001   0.31628
   D102       2.42939  -0.00000   0.00000   0.00001   0.00001   2.42940
   D103       1.35595  -0.00000   0.00000   0.00000   0.00000   1.35595
   D104      -2.83468  -0.00000   0.00000   0.00001   0.00001  -2.83467
   D105      -0.72156  -0.00000   0.00000   0.00000   0.00000  -0.72156
   D106       3.02692   0.00002   0.00000  -0.00000  -0.00000   3.02692
   D107       2.41133   0.00003   0.00000  -0.00000  -0.00000   2.41133
   D108      -0.69897   0.00003   0.00000   0.00000   0.00000  -0.69897
   D109      -1.31457   0.00004   0.00000  -0.00000  -0.00000  -1.31457
   D110      -1.00032   0.00003   0.00000  -0.00000  -0.00000  -1.00032
   D111       1.61423  -0.00004   0.00000   0.00000   0.00000   1.61423
   D112      -2.92631   0.00007   0.00000  -0.00000  -0.00000  -2.92631
   D113       2.84074   0.00005   0.00000  -0.00000  -0.00000   2.84074
   D114      -0.82790  -0.00003   0.00000   0.00000   0.00000  -0.82790
   D115       0.91475   0.00008   0.00000  -0.00000  -0.00000   0.91475
   D116      -0.07805   0.00008   0.00000  -0.00000  -0.00000  -0.07805
   D117       2.03955   0.00005   0.00000   0.00000   0.00000   2.03955
   D118      -0.85567  -0.00003   0.00000   0.00000   0.00000  -0.85567
   D119      -2.92496  -0.00002   0.00000   0.00000   0.00000  -2.92496
   D120      -2.94435   0.00000   0.00000  -0.00000  -0.00000  -2.94435
   D121      -0.81481   0.00001   0.00000   0.00000   0.00000  -0.81481
   D122       1.26451   0.00002   0.00000   0.00000   0.00000   1.26451
   D123       1.15863  -0.00001   0.00000   0.00000   0.00000   1.15863
   D124      -2.99502   0.00000   0.00000   0.00000   0.00000  -2.99502
   D125      -0.91569   0.00001   0.00000   0.00000   0.00000  -0.91569
   D126      -0.89480  -0.00000   0.00000   0.00000   0.00000  -0.89480
   D127       1.23473   0.00001   0.00000   0.00000   0.00000   1.23474
   D128      -2.96913   0.00001   0.00000   0.00000   0.00000  -2.96913
   D129       0.10183   0.00000   0.00000  -0.00000  -0.00000   0.10183
   D130      -3.08504   0.00002   0.00000   0.00000   0.00000  -3.08504
   D131      -3.07531  -0.00001   0.00000  -0.00000  -0.00000  -3.07531
   D132       0.02101   0.00001   0.00000   0.00000   0.00000   0.02101
   D133       0.42908   0.00002   0.00000  -0.00000  -0.00000   0.42908
   D134      -1.43608   0.00001   0.00000  -0.00000  -0.00000  -1.43608
   D135       2.16699   0.00008   0.00000   0.00000   0.00000   2.16700
   D136       1.58020  -0.00001   0.00000   0.00000   0.00000   1.58020
   D137      -0.28496  -0.00002   0.00000   0.00000   0.00000  -0.28496
   D138      -2.96507   0.00005   0.00000   0.00000   0.00000  -2.96507
   D139      -1.52614  -0.00000   0.00000  -0.00000  -0.00000  -1.52614
   D140       2.89188  -0.00001   0.00000  -0.00000  -0.00000   2.89188
   D141       0.21177   0.00006   0.00000   0.00000   0.00000   0.21177
   D142      -1.82616   0.00003   0.00000   0.00000   0.00000  -1.82616
   D143       0.27156   0.00003   0.00000   0.00000   0.00000   0.27156
   D144       2.34649   0.00003   0.00000   0.00000   0.00000   2.34649
   D145       3.09990  -0.00001   0.00000  -0.00000  -0.00000   3.09990
   D146      -1.08556  -0.00001   0.00000  -0.00000  -0.00000  -1.08556
   D147       0.98937  -0.00001   0.00000   0.00000   0.00000   0.98937
   D148      -0.07733  -0.00002   0.00000   0.00000   0.00000  -0.07733
   D149       2.02039  -0.00002   0.00000   0.00000   0.00000   2.02039
   D150      -2.18786  -0.00002   0.00000   0.00000   0.00000  -2.18786
   D151      -3.12189  -0.00003   0.00000   0.00000   0.00000  -3.12189
   D152       0.00443  -0.00002   0.00000   0.00000   0.00000   0.00443
   D153      -0.07715  -0.00002   0.00000  -0.00000  -0.00000  -0.07715
   D154       3.04917  -0.00001   0.00000  -0.00000  -0.00000   3.04917
   D155      -1.59122  -0.00005   0.00000  -0.00000  -0.00000  -1.59122
   D156       0.27575   0.00003   0.00000   0.00000   0.00000   0.27575
   D157       2.95444  -0.00005   0.00000  -0.00000  -0.00000   2.95444
   D158       1.45501  -0.00004   0.00000  -0.00000  -0.00000   1.45501
   D159      -2.96121   0.00004   0.00000  -0.00000  -0.00000  -2.96121
   D160      -0.28251  -0.00004   0.00000  -0.00000  -0.00000  -0.28251
   D161       1.38737  -0.00005   0.00000   0.00000   0.00000   1.38737
   D162      -1.77348  -0.00005   0.00000  -0.00000  -0.00000  -1.77348
   D163       0.09215   0.00001   0.00000   0.00000   0.00000   0.09215
   D164      -3.06870   0.00002   0.00000   0.00000   0.00000  -3.06870
   D165      -3.00644  -0.00000   0.00000  -0.00000  -0.00000  -3.00644
   D166       0.11590   0.00000   0.00000  -0.00000  -0.00000   0.11590
   D167       1.58076  -0.00000   0.00000   0.00000   0.00000   1.58076
   D168      -2.61186  -0.00000   0.00000   0.00000   0.00000  -2.61186
   D169      -0.52978  -0.00000   0.00000   0.00000   0.00000  -0.52978
   D170       3.03865  -0.00001   0.00000   0.00000   0.00000   3.03865
   D171      -1.15397  -0.00001   0.00000  -0.00000  -0.00000  -1.15397
   D172       0.92811  -0.00001   0.00000  -0.00000  -0.00000   0.92811
   D173      -0.14689   0.00001   0.00000   0.00000   0.00000  -0.14688
   D174       1.94368   0.00001   0.00000   0.00000   0.00000   1.94368
   D175      -2.25742   0.00001   0.00000   0.00000   0.00000  -2.25742
   D176      -0.10595  -0.00001   0.00000  -0.00000  -0.00000  -0.10596
   D177       3.05463  -0.00001   0.00000  -0.00000  -0.00000   3.05463
   D178       3.04998  -0.00001   0.00000  -0.00000  -0.00000   3.04998
   D179      -0.07262  -0.00002   0.00000  -0.00000  -0.00000  -0.07262
   D180       2.27918  -0.00000   0.00000  -0.00000  -0.00000   2.27918
   D181      -1.95883  -0.00000   0.00000  -0.00000  -0.00000  -1.95883
   D182       0.15066  -0.00000   0.00000  -0.00000  -0.00000   0.15066
   D183      -0.87739   0.00000   0.00000  -0.00000  -0.00000  -0.87739
   D184       1.16778   0.00000   0.00000  -0.00000  -0.00000   1.16778
   D185      -3.00590   0.00000   0.00000  -0.00000  -0.00000  -3.00590
   D186       0.14929   0.00005   0.00000  -0.00000  -0.00000   0.14929
   D187      -1.65071  -0.00006   0.00000  -0.00000  -0.00000  -1.65071
   D188       1.94664   0.00002   0.00000  -0.00000  -0.00000   1.94664
         Item               Value     Threshold  Converged?
 Maximum Force            0.000001     0.000450     YES
 RMS     Force            0.000000     0.000300     YES
 Maximum Displacement     0.000009     0.001800     YES
 RMS     Displacement     0.000001     0.001200     YES
 Predicted change in Energy=-4.555119D-12
 Optimization completed.
    -- Stationary point found.
                           ----------------------------
                           !   Optimized Parameters   !
                           ! (Angstroms and Degrees)  !
 --------------------------                            --------------------------
 ! Name  Definition              Value          Derivative Info.                !
 --------------------------------------------------------------------------------
 ! R1    R(1,2)                  1.3892         -DE/DX =    0.0                 !
 ! R2    R(1,6)                  1.3975         -DE/DX =    0.0                 !
 ! R3    R(1,7)                  1.086          -DE/DX =    0.0                 !
 ! R4    R(2,3)                  1.4107         -DE/DX =    0.0                 !
 ! R5    R(2,8)                  1.0806         -DE/DX =    0.0                 !
 ! R6    R(3,4)                  1.408          -DE/DX =    0.0                 !
 ! R7    R(3,42)                 1.4806         -DE/DX =    0.0                 !
 ! R8    R(4,5)                  1.393          -DE/DX =    0.0                 !
 ! R9    R(4,9)                  1.0823         -DE/DX =    0.0                 !
 ! R10   R(5,6)                  1.3953         -DE/DX =    0.0                 !
 ! R11   R(5,10)                 1.0859         -DE/DX =    0.0                 !
 ! R12   R(6,11)                 1.0859         -DE/DX =    0.0                 !
 ! R13   R(12,13)                1.4062         -DE/DX =    0.0                 !
 ! R14   R(12,14)                1.4094         -DE/DX =    0.0                 !
 ! R15   R(12,42)                1.4881         -DE/DX =    0.0                 !
 ! R16   R(13,15)                1.3954         -DE/DX =    0.0                 !
 ! R17   R(13,16)                1.0844         -DE/DX =    0.0                 !
 ! R18   R(14,17)                1.3902         -DE/DX =    0.0                 !
 ! R19   R(14,18)                1.085          -DE/DX =    0.0                 !
 ! R20   R(15,19)                1.3938         -DE/DX =    0.0                 !
 ! R21   R(15,20)                1.0858         -DE/DX =    0.0                 !
 ! R22   R(17,19)                1.3986         -DE/DX =    0.0                 !
 ! R23   R(17,21)                1.086          -DE/DX =    0.0                 !
 ! R24   R(18,50)                2.2788         -DE/DX =   -0.0001              !
 ! R25   R(19,22)                1.0856         -DE/DX =    0.0                 !
 ! R26   R(23,24)                1.4681         -DE/DX =    0.0                 !
 ! R27   R(23,25)                1.462          -DE/DX =    0.0                 !
 ! R28   R(23,26)                1.7837         -DE/DX =    0.0                 !
 ! R29   R(23,40)                1.7202         -DE/DX =    0.0                 !
 ! R30   R(26,27)                1.394          -DE/DX =    0.0                 !
 ! R31   R(26,28)                1.3955         -DE/DX =    0.0                 !
 ! R32   R(27,29)                1.394          -DE/DX =    0.0                 !
 ! R33   R(27,30)                1.0838         -DE/DX =    0.0                 !
 ! R34   R(28,31)                1.3906         -DE/DX =    0.0                 !
 ! R35   R(28,32)                1.083          -DE/DX =    0.0                 !
 ! R36   R(29,33)                1.4016         -DE/DX =    0.0                 !
 ! R37   R(29,34)                1.0865         -DE/DX =    0.0                 !
 ! R38   R(31,33)                1.4039         -DE/DX =    0.0                 !
 ! R39   R(31,35)                1.0857         -DE/DX =    0.0                 !
 ! R40   R(33,36)                1.5088         -DE/DX =    0.0                 !
 ! R41   R(36,37)                1.0966         -DE/DX =    0.0                 !
 ! R42   R(36,38)                1.0934         -DE/DX =    0.0                 !
 ! R43   R(36,39)                1.0944         -DE/DX =    0.0                 !
 ! R44   R(40,41)                1.0188         -DE/DX =   -0.0001              !
 ! R45   R(40,42)                1.3991         -DE/DX =    0.0                 !
 ! R46   R(41,43)                2.397          -DE/DX =   -0.0001              !
 ! R47   R(41,45)                2.3183         -DE/DX =   -0.0001              !
 ! R48   R(42,49)                2.3389         -DE/DX =   -0.0009              !
 ! R49   R(43,45)                1.3763         -DE/DX =    0.0                 !
 ! R50   R(43,49)                1.4417         -DE/DX =    0.0                 !
 ! R51   R(43,59)                1.5098         -DE/DX =    0.0                 !
 ! R52   R(44,46)                1.3614         -DE/DX =    0.0                 !
 ! R53   R(44,47)                1.0864         -DE/DX =    0.0                 !
 ! R54   R(44,49)                1.4289         -DE/DX =    0.0                 !
 ! R55   R(45,48)                1.4792         -DE/DX =    0.0                 !
 ! R56   R(45,51)                1.5062         -DE/DX =    0.0                 !
 ! R57   R(46,48)                1.4753         -DE/DX =    0.0                 !
 ! R58   R(46,55)                1.4999         -DE/DX =    0.0                 !
 ! R59   R(48,63)                1.2448         -DE/DX =    0.0                 !
 ! R60   R(49,50)                1.0839         -DE/DX =    0.0                 !
 ! R61   R(51,52)                1.0906         -DE/DX =    0.0                 !
 ! R62   R(51,53)                1.0978         -DE/DX =    0.0                 !
 ! R63   R(51,54)                1.0961         -DE/DX =    0.0                 !
 ! R64   R(55,56)                1.0944         -DE/DX =    0.0                 !
 ! R65   R(55,57)                1.0959         -DE/DX =    0.0                 !
 ! R66   R(55,58)                1.0937         -DE/DX =    0.0                 !
 ! R67   R(59,60)                1.0908         -DE/DX =    0.0                 !
 ! R68   R(59,61)                1.0957         -DE/DX =    0.0                 !
 ! R69   R(59,62)                1.0959         -DE/DX =    0.0                 !
 ! A1    A(2,1,6)              120.2963         -DE/DX =    0.0                 !
 ! A2    A(2,1,7)              119.3268         -DE/DX =    0.0                 !
 ! A3    A(6,1,7)              120.3752         -DE/DX =    0.0                 !
 ! A4    A(1,2,3)              121.147          -DE/DX =    0.0                 !
 ! A5    A(1,2,8)              119.7234         -DE/DX =    0.0                 !
 ! A6    A(3,2,8)              119.1294         -DE/DX =    0.0                 !
 ! A7    A(2,3,4)              117.8359         -DE/DX =    0.0                 !
 ! A8    A(2,3,42)             119.603          -DE/DX =    0.0                 !
 ! A9    A(4,3,42)             122.4661         -DE/DX =    0.0                 !
 ! A10   A(3,4,5)              120.8433         -DE/DX =    0.0                 !
 ! A11   A(3,4,9)              120.0488         -DE/DX =    0.0                 !
 ! A12   A(5,4,9)              119.058          -DE/DX =    0.0                 !
 ! A13   A(4,5,6)              120.5349         -DE/DX =    0.0                 !
 ! A14   A(4,5,10)             119.3509         -DE/DX =    0.0                 !
 ! A15   A(6,5,10)             120.1044         -DE/DX =    0.0                 !
 ! A16   A(1,6,5)              119.3183         -DE/DX =    0.0                 !
 ! A17   A(1,6,11)             120.3653         -DE/DX =    0.0                 !
 ! A18   A(5,6,11)             120.3105         -DE/DX =    0.0                 !
 ! A19   A(13,12,14)           118.0871         -DE/DX =    0.0                 !
 ! A20   A(13,12,42)           120.2015         -DE/DX =    0.0                 !
 ! A21   A(14,12,42)           121.7066         -DE/DX =    0.0                 !
 ! A22   A(12,13,15)           120.7164         -DE/DX =    0.0                 !
 ! A23   A(12,13,16)           120.1391         -DE/DX =    0.0                 !
 ! A24   A(15,13,16)           119.1412         -DE/DX =    0.0                 !
 ! A25   A(12,14,17)           121.0382         -DE/DX =    0.0                 !
 ! A26   A(12,14,18)           119.4522         -DE/DX =    0.0                 !
 ! A27   A(17,14,18)           119.5008         -DE/DX =    0.0                 !
 ! A28   A(13,15,19)           120.5234         -DE/DX =    0.0                 !
 ! A29   A(13,15,20)           119.2968         -DE/DX =    0.0                 !
 ! A30   A(19,15,20)           120.1791         -DE/DX =    0.0                 !
 ! A31   A(14,17,19)           120.2571         -DE/DX =    0.0                 !
 ! A32   A(14,17,21)           119.6014         -DE/DX =    0.0                 !
 ! A33   A(19,17,21)           120.1389         -DE/DX =    0.0                 !
 ! A34   A(14,18,50)           100.4508         -DE/DX =   -0.0001              !
 ! A35   A(15,19,17)           119.3772         -DE/DX =    0.0                 !
 ! A36   A(15,19,22)           120.3777         -DE/DX =    0.0                 !
 ! A37   A(17,19,22)           120.2451         -DE/DX =    0.0                 !
 ! A38   A(24,23,25)           122.1506         -DE/DX =    0.0                 !
 ! A39   A(24,23,26)           108.3142         -DE/DX =    0.0                 !
 ! A40   A(24,23,40)           103.2325         -DE/DX =    0.0                 !
 ! A41   A(25,23,26)           109.1659         -DE/DX =    0.0                 !
 ! A42   A(25,23,40)           108.5988         -DE/DX =    0.0                 !
 ! A43   A(26,23,40)           103.7823         -DE/DX =    0.0                 !
 ! A44   A(23,26,27)           119.3401         -DE/DX =    0.0                 !
 ! A45   A(23,26,28)           118.9065         -DE/DX =    0.0                 !
 ! A46   A(27,26,28)           121.7224         -DE/DX =    0.0                 !
 ! A47   A(26,27,29)           118.6506         -DE/DX =    0.0                 !
 ! A48   A(26,27,30)           119.7639         -DE/DX =    0.0                 !
 ! A49   A(29,27,30)           121.5781         -DE/DX =    0.0                 !
 ! A50   A(26,28,31)           118.6663         -DE/DX =    0.0                 !
 ! A51   A(26,28,32)           121.3287         -DE/DX =    0.0                 !
 ! A52   A(31,28,32)           119.9573         -DE/DX =    0.0                 !
 ! A53   A(27,29,33)           121.1151         -DE/DX =    0.0                 !
 ! A54   A(27,29,34)           119.3311         -DE/DX =    0.0                 !
 ! A55   A(33,29,34)           119.5522         -DE/DX =    0.0                 !
 ! A56   A(28,31,33)           121.1672         -DE/DX =    0.0                 !
 ! A57   A(28,31,35)           118.7929         -DE/DX =    0.0                 !
 ! A58   A(33,31,35)           120.0251         -DE/DX =    0.0                 !
 ! A59   A(29,33,31)           118.6726         -DE/DX =    0.0                 !
 ! A60   A(29,33,36)           121.0434         -DE/DX =    0.0                 !
 ! A61   A(31,33,36)           120.2819         -DE/DX =    0.0                 !
 ! A62   A(33,36,37)           110.7448         -DE/DX =    0.0                 !
 ! A63   A(33,36,38)           111.6866         -DE/DX =    0.0                 !
 ! A64   A(33,36,39)           111.1964         -DE/DX =    0.0                 !
 ! A65   A(37,36,38)           107.5908         -DE/DX =    0.0                 !
 ! A66   A(37,36,39)           107.1617         -DE/DX =    0.0                 !
 ! A67   A(38,36,39)           108.2726         -DE/DX =    0.0                 !
 ! A68   A(23,40,41)           108.5286         -DE/DX =    0.0                 !
 ! A69   A(23,40,42)           125.6697         -DE/DX =    0.0                 !
 ! A70   A(41,40,42)           114.9404         -DE/DX =    0.0                 !
 ! A71   A(40,41,43)           113.1641         -DE/DX =   -0.0001              !
 ! A72   A(40,41,45)           129.261          -DE/DX =   -0.0001              !
 ! A73   A(3,42,12)            120.7358         -DE/DX =    0.0                 !
 ! A74   A(3,42,40)            114.8126         -DE/DX =    0.0                 !
 ! A75   A(3,42,49)            106.498          -DE/DX =   -0.0001              !
 ! A76   A(12,42,40)           116.7962         -DE/DX =    0.0                 !
 ! A77   A(12,42,49)            96.8411         -DE/DX =    0.0001              !
 ! A78   A(40,42,49)            94.2127         -DE/DX =    0.0001              !
 ! A79   A(41,43,49)            88.7044         -DE/DX =   -0.0001              !
 ! A80   A(41,43,59)           109.6679         -DE/DX =    0.0001              !
 ! A81   A(45,43,49)           119.5312         -DE/DX =    0.0                 !
 ! A82   A(45,43,59)           120.6287         -DE/DX =    0.0                 !
 ! A83   A(49,43,59)           119.8089         -DE/DX =    0.0                 !
 ! A84   A(46,44,47)           119.846          -DE/DX =    0.0                 !
 ! A85   A(46,44,49)           121.6811         -DE/DX =    0.0                 !
 ! A86   A(47,44,49)           118.2476         -DE/DX =    0.0                 !
 ! A87   A(41,45,48)            90.4431         -DE/DX =    0.0                 !
 ! A88   A(41,45,51)           105.96           -DE/DX =    0.0001              !
 ! A89   A(43,45,48)           120.3482         -DE/DX =    0.0                 !
 ! A90   A(43,45,51)           122.3756         -DE/DX =    0.0                 !
 ! A91   A(48,45,51)           117.2281         -DE/DX =    0.0                 !
 ! A92   A(44,46,48)           119.3451         -DE/DX =    0.0                 !
 ! A93   A(44,46,55)           123.4101         -DE/DX =    0.0                 !
 ! A94   A(48,46,55)           117.2393         -DE/DX =    0.0                 !
 ! A95   A(45,48,46)           117.7634         -DE/DX =    0.0                 !
 ! A96   A(45,48,63)           121.7695         -DE/DX =    0.0                 !
 ! A97   A(46,48,63)           120.4579         -DE/DX =    0.0                 !
 ! A98   A(42,49,43)            99.7955         -DE/DX =    0.0001              !
 ! A99   A(42,49,44)            99.6117         -DE/DX =    0.0                 !
 ! A100  A(42,49,50)            93.812          -DE/DX =    0.0                 !
 ! A101  A(43,49,44)           119.1207         -DE/DX =    0.0                 !
 ! A102  A(43,49,50)           117.5887         -DE/DX =    0.0                 !
 ! A103  A(44,49,50)           117.8975         -DE/DX =    0.0                 !
 ! A104  A(18,50,49)           128.8572         -DE/DX =    0.0001              !
 ! A105  A(45,51,52)           109.6292         -DE/DX =    0.0                 !
 ! A106  A(45,51,53)           111.2564         -DE/DX =    0.0                 !
 ! A107  A(45,51,54)           111.8818         -DE/DX =    0.0                 !
 ! A108  A(52,51,53)           108.3126         -DE/DX =    0.0                 !
 ! A109  A(52,51,54)           108.9034         -DE/DX =    0.0                 !
 ! A110  A(53,51,54)           106.7407         -DE/DX =    0.0                 !
 ! A111  A(46,55,56)           110.7437         -DE/DX =    0.0                 !
 ! A112  A(46,55,57)           110.4711         -DE/DX =    0.0                 !
 ! A113  A(46,55,58)           111.3739         -DE/DX =    0.0                 !
 ! A114  A(56,55,57)           106.041          -DE/DX =    0.0                 !
 ! A115  A(56,55,58)           109.379          -DE/DX =    0.0                 !
 ! A116  A(57,55,58)           108.6693         -DE/DX =    0.0                 !
 ! A117  A(43,59,60)           111.8373         -DE/DX =    0.0                 !
 ! A118  A(43,59,61)           111.6172         -DE/DX =    0.0                 !
 ! A119  A(43,59,62)           110.4704         -DE/DX =    0.0                 !
 ! A120  A(60,59,61)           107.273          -DE/DX =    0.0                 !
 ! A121  A(60,59,62)           108.4709         -DE/DX =    0.0                 !
 ! A122  A(61,59,62)           106.9704         -DE/DX =    0.0                 !
 ! D1    D(6,1,2,3)             -0.4355         -DE/DX =    0.0                 !
 ! D2    D(6,1,2,8)            179.7605         -DE/DX =    0.0                 !
 ! D3    D(7,1,2,3)           -179.9696         -DE/DX =    0.0                 !
 ! D4    D(7,1,2,8)              0.2264         -DE/DX =    0.0                 !
 ! D5    D(2,1,6,5)             -0.7396         -DE/DX =    0.0                 !
 ! D6    D(2,1,6,11)          -179.8538         -DE/DX =    0.0                 !
 ! D7    D(7,1,6,5)            178.7895         -DE/DX =    0.0                 !
 ! D8    D(7,1,6,11)            -0.3246         -DE/DX =    0.0                 !
 ! D9    D(1,2,3,4)              1.6048         -DE/DX =    0.0                 !
 ! D10   D(1,2,3,42)           178.1497         -DE/DX =    0.0                 !
 ! D11   D(8,2,3,4)           -178.59           -DE/DX =    0.0                 !
 ! D12   D(8,2,3,42)            -2.0451         -DE/DX =    0.0                 !
 ! D13   D(2,3,4,5)             -1.6376         -DE/DX =    0.0                 !
 ! D14   D(2,3,4,9)            175.7682         -DE/DX =    0.0                 !
 ! D15   D(42,3,4,5)          -178.0768         -DE/DX =    0.0                 !
 ! D16   D(42,3,4,9)            -0.6711         -DE/DX =    0.0                 !
 ! D17   D(2,3,42,12)          178.9135         -DE/DX =    0.0                 !
 ! D18   D(2,3,42,40)          -32.5757         -DE/DX =    0.0                 !
 ! D19   D(2,3,42,49)           70.2119         -DE/DX =    0.0                 !
 ! D20   D(4,3,42,12)           -4.708          -DE/DX =    0.0                 !
 ! D21   D(4,3,42,40)          143.8028         -DE/DX =    0.0                 !
 ! D22   D(4,3,42,49)         -113.4095         -DE/DX =    0.0                 !
 ! D23   D(3,4,5,6)              0.5092         -DE/DX =    0.0                 !
 ! D24   D(3,4,5,10)           179.3766         -DE/DX =    0.0                 !
 ! D25   D(9,4,5,6)           -176.9219         -DE/DX =    0.0                 !
 ! D26   D(9,4,5,10)             1.9455         -DE/DX =    0.0                 !
 ! D27   D(4,5,6,1)              0.7037         -DE/DX =    0.0                 !
 ! D28   D(4,5,6,11)           179.8183         -DE/DX =    0.0                 !
 ! D29   D(10,5,6,1)          -178.1553         -DE/DX =    0.0                 !
 ! D30   D(10,5,6,11)            0.9594         -DE/DX =    0.0                 !
 ! D31   D(14,12,13,15)          0.0191         -DE/DX =    0.0                 !
 ! D32   D(14,12,13,16)        179.3623         -DE/DX =    0.0                 !
 ! D33   D(42,12,13,15)        179.2357         -DE/DX =    0.0                 !
 ! D34   D(42,12,13,16)         -1.4212         -DE/DX =    0.0                 !
 ! D35   D(13,12,14,17)         -0.1575         -DE/DX =    0.0                 !
 ! D36   D(13,12,14,18)        178.7636         -DE/DX =    0.0001              !
 ! D37   D(42,12,14,17)       -179.3616         -DE/DX =    0.0                 !
 ! D38   D(42,12,14,18)         -0.4405         -DE/DX =    0.0001              !
 ! D39   D(13,12,42,3)         130.4896         -DE/DX =    0.0001              !
 ! D40   D(13,12,42,40)        -17.4267         -DE/DX =    0.0001              !
 ! D41   D(13,12,42,49)       -115.6759         -DE/DX =    0.0                 !
 ! D42   D(14,12,42,3)         -50.3228         -DE/DX =    0.0001              !
 ! D43   D(14,12,42,40)        161.7608         -DE/DX =    0.0002              !
 ! D44   D(14,12,42,49)         63.5116         -DE/DX =    0.0                 !
 ! D45   D(12,13,15,19)         -0.0007         -DE/DX =    0.0                 !
 ! D46   D(12,13,15,20)        179.6919         -DE/DX =    0.0                 !
 ! D47   D(16,13,15,19)       -179.3503         -DE/DX =    0.0                 !
 ! D48   D(16,13,15,20)          0.3423         -DE/DX =    0.0                 !
 ! D49   D(12,14,17,19)          0.2776         -DE/DX =    0.0                 !
 ! D50   D(12,14,17,21)        179.6835         -DE/DX =    0.0                 !
 ! D51   D(18,14,17,19)       -178.6429         -DE/DX =   -0.0001              !
 ! D52   D(18,14,17,21)          0.7629         -DE/DX =    0.0                 !
 ! D53   D(12,14,18,50)        -54.1016         -DE/DX =    0.0001              !
 ! D54   D(17,14,18,50)        124.8362         -DE/DX =    0.0001              !
 ! D55   D(13,15,19,17)          0.1171         -DE/DX =    0.0                 !
 ! D56   D(13,15,19,22)       -179.8513         -DE/DX =    0.0                 !
 ! D57   D(20,15,19,17)       -179.5728         -DE/DX =    0.0                 !
 ! D58   D(20,15,19,22)          0.4588         -DE/DX =    0.0                 !
 ! D59   D(14,17,19,15)         -0.2542         -DE/DX =    0.0                 !
 ! D60   D(14,17,19,22)        179.7142         -DE/DX =    0.0                 !
 ! D61   D(21,17,19,15)       -179.6569         -DE/DX =    0.0                 !
 ! D62   D(21,17,19,22)          0.3116         -DE/DX =    0.0                 !
 ! D63   D(14,18,50,49)         49.3022         -DE/DX =    0.0                 !
 ! D64   D(24,23,26,27)        139.4066         -DE/DX =    0.0                 !
 ! D65   D(24,23,26,28)        -42.5839         -DE/DX =    0.0                 !
 ! D66   D(25,23,26,27)          4.2956         -DE/DX =    0.0                 !
 ! D67   D(25,23,26,28)       -177.6949         -DE/DX =    0.0                 !
 ! D68   D(40,23,26,27)       -111.3576         -DE/DX =    0.0                 !
 ! D69   D(40,23,26,28)         66.6519         -DE/DX =    0.0                 !
 ! D70   D(24,23,40,41)         12.2742         -DE/DX =    0.0                 !
 ! D71   D(24,23,40,42)       -129.7239         -DE/DX =    0.0                 !
 ! D72   D(25,23,40,41)        143.2632         -DE/DX =    0.0                 !
 ! D73   D(25,23,40,42)          1.2651         -DE/DX =    0.0                 !
 ! D74   D(26,23,40,41)       -100.6833         -DE/DX =    0.0                 !
 ! D75   D(26,23,40,42)        117.3185         -DE/DX =    0.0                 !
 ! D76   D(23,26,27,29)        177.9352         -DE/DX =    0.0                 !
 ! D77   D(23,26,27,30)         -1.0891         -DE/DX =    0.0                 !
 ! D78   D(28,26,27,29)         -0.0162         -DE/DX =    0.0                 !
 ! D79   D(28,26,27,30)       -179.0405         -DE/DX =    0.0                 !
 ! D80   D(23,26,28,31)       -177.2908         -DE/DX =    0.0                 !
 ! D81   D(23,26,28,32)          0.194          -DE/DX =    0.0                 !
 ! D82   D(27,26,28,31)          0.6692         -DE/DX =    0.0                 !
 ! D83   D(27,26,28,32)        178.1541         -DE/DX =    0.0                 !
 ! D84   D(26,27,29,33)         -0.4573         -DE/DX =    0.0                 !
 ! D85   D(26,27,29,34)       -179.9978         -DE/DX =    0.0                 !
 ! D86   D(30,27,29,33)        178.5486         -DE/DX =    0.0                 !
 ! D87   D(30,27,29,34)         -0.9919         -DE/DX =    0.0                 !
 ! D88   D(26,28,31,33)         -0.8664         -DE/DX =    0.0                 !
 ! D89   D(26,28,31,35)        177.7336         -DE/DX =    0.0                 !
 ! D90   D(32,28,31,33)       -178.3867         -DE/DX =    0.0                 !
 ! D91   D(32,28,31,35)          0.2133         -DE/DX =    0.0                 !
 ! D92   D(27,29,33,31)          0.2644         -DE/DX =    0.0                 !
 ! D93   D(27,29,33,36)        179.7365         -DE/DX =    0.0                 !
 ! D94   D(34,29,33,31)        179.8039         -DE/DX =    0.0                 !
 ! D95   D(34,29,33,36)         -0.724          -DE/DX =    0.0                 !
 ! D96   D(28,31,33,29)          0.4115         -DE/DX =    0.0                 !
 ! D97   D(28,31,33,36)       -179.0647         -DE/DX =    0.0                 !
 ! D98   D(35,31,33,29)       -178.1714         -DE/DX =    0.0                 !
 ! D99   D(35,31,33,36)          2.3524         -DE/DX =    0.0                 !
 ! D100  D(29,33,36,37)       -101.7735         -DE/DX =    0.0                 !
 ! D101  D(29,33,36,38)         18.1214         -DE/DX =    0.0                 !
 ! D102  D(29,33,36,39)        139.194          -DE/DX =    0.0                 !
 ! D103  D(31,33,36,37)         77.6901         -DE/DX =    0.0                 !
 ! D104  D(31,33,36,38)       -162.415          -DE/DX =    0.0                 !
 ! D105  D(31,33,36,39)        -41.3423         -DE/DX =    0.0                 !
 ! D106  D(23,40,41,43)        173.43           -DE/DX =    0.0                 !
 ! D107  D(23,40,41,45)        138.1592         -DE/DX =    0.0                 !
 ! D108  D(42,40,41,43)        -40.0482         -DE/DX =    0.0                 !
 ! D109  D(42,40,41,45)        -75.319          -DE/DX =    0.0                 !
 ! D110  D(23,40,42,3)         -57.3143         -DE/DX =    0.0                 !
 ! D111  D(23,40,42,12)         92.4884         -DE/DX =    0.0                 !
 ! D112  D(23,40,42,49)       -167.6651         -DE/DX =    0.0001              !
 ! D113  D(41,40,42,3)         162.7623         -DE/DX =    0.0                 !
 ! D114  D(41,40,42,12)        -47.435          -DE/DX =    0.0                 !
 ! D115  D(41,40,42,49)         52.4115         -DE/DX =    0.0001              !
 ! D116  D(40,41,43,49)         -4.4718         -DE/DX =    0.0001              !
 ! D117  D(40,41,43,59)        116.8576         -DE/DX =    0.0001              !
 ! D118  D(40,41,45,48)        -49.0263         -DE/DX =    0.0                 !
 ! D119  D(40,41,45,51)       -167.5879         -DE/DX =    0.0                 !
 ! D120  D(3,42,49,43)        -168.699          -DE/DX =    0.0                 !
 ! D121  D(3,42,49,44)         -46.6854         -DE/DX =    0.0                 !
 ! D122  D(3,42,49,50)          72.4509         -DE/DX =    0.0                 !
 ! D123  D(12,42,49,43)         66.3847         -DE/DX =    0.0                 !
 ! D124  D(12,42,49,44)       -171.6018         -DE/DX =    0.0                 !
 ! D125  D(12,42,49,50)        -52.4654         -DE/DX =    0.0                 !
 ! D126  D(40,42,49,43)        -51.2685         -DE/DX =    0.0                 !
 ! D127  D(40,42,49,44)         70.7451         -DE/DX =    0.0                 !
 ! D128  D(40,42,49,50)       -170.1185         -DE/DX =    0.0                 !
 ! D129  D(49,43,45,48)          5.8343         -DE/DX =    0.0                 !
 ! D130  D(49,43,45,51)       -176.7599         -DE/DX =    0.0                 !
 ! D131  D(59,43,45,48)       -176.2021         -DE/DX =    0.0                 !
 ! D132  D(59,43,45,51)          1.2037         -DE/DX =    0.0                 !
 ! D133  D(41,43,49,42)         24.5847         -DE/DX =    0.0                 !
 ! D134  D(41,43,49,44)        -82.2814         -DE/DX =    0.0                 !
 ! D135  D(41,43,49,50)        124.1597         -DE/DX =    0.0001              !
 ! D136  D(45,43,49,42)         90.5389         -DE/DX =    0.0                 !
 ! D137  D(45,43,49,44)        -16.3272         -DE/DX =    0.0                 !
 ! D138  D(45,43,49,50)       -169.8862         -DE/DX =    0.0001              !
 ! D139  D(59,43,49,42)        -87.4417         -DE/DX =    0.0                 !
 ! D140  D(59,43,49,44)        165.6923         -DE/DX =    0.0                 !
 ! D141  D(59,43,49,50)         12.1333         -DE/DX =    0.0001              !
 ! D142  D(41,43,59,60)       -104.6314         -DE/DX =    0.0                 !
 ! D143  D(41,43,59,61)         15.5591         -DE/DX =    0.0                 !
 ! D144  D(41,43,59,62)        134.4439         -DE/DX =    0.0                 !
 ! D145  D(45,43,59,60)        177.6114         -DE/DX =    0.0                 !
 ! D146  D(45,43,59,61)        -62.1981         -DE/DX =    0.0                 !
 ! D147  D(45,43,59,62)         56.6867         -DE/DX =    0.0                 !
 ! D148  D(49,43,59,60)         -4.4306         -DE/DX =    0.0                 !
 ! D149  D(49,43,59,61)        115.7598         -DE/DX =    0.0                 !
 ! D150  D(49,43,59,62)       -125.3553         -DE/DX =    0.0                 !
 ! D151  D(47,44,46,48)       -178.8711         -DE/DX =    0.0                 !
 ! D152  D(47,44,46,55)          0.2538         -DE/DX =    0.0                 !
 ! D153  D(49,44,46,48)         -4.4205         -DE/DX =    0.0                 !
 ! D154  D(49,44,46,55)        174.7043         -DE/DX =    0.0                 !
 ! D155  D(46,44,49,42)        -91.1703         -DE/DX =   -0.0001              !
 ! D156  D(46,44,49,43)         15.799          -DE/DX =    0.0                 !
 ! D157  D(46,44,49,50)        169.2771         -DE/DX =   -0.0001              !
 ! D158  D(47,44,49,42)         83.3658         -DE/DX =    0.0                 !
 ! D159  D(47,44,49,43)       -169.6648         -DE/DX =    0.0                 !
 ! D160  D(47,44,49,50)        -16.1867         -DE/DX =    0.0                 !
 ! D161  D(41,45,48,46)         79.4902         -DE/DX =   -0.0001              !
 ! D162  D(41,45,48,63)       -101.6131         -DE/DX =    0.0                 !
 ! D163  D(43,45,48,46)          5.2797         -DE/DX =    0.0                 !
 ! D164  D(43,45,48,63)       -175.8235         -DE/DX =    0.0                 !
 ! D165  D(51,45,48,46)       -172.2564         -DE/DX =    0.0                 !
 ! D166  D(51,45,48,63)          6.6404         -DE/DX =    0.0                 !
 ! D167  D(41,45,51,52)         90.5706         -DE/DX =    0.0                 !
 ! D168  D(41,45,51,53)       -149.6487         -DE/DX =    0.0                 !
 ! D169  D(41,45,51,54)        -30.3542         -DE/DX =    0.0                 !
 ! D170  D(43,45,51,52)        174.1017         -DE/DX =    0.0                 !
 ! D171  D(43,45,51,53)        -66.1176         -DE/DX =    0.0                 !
 ! D172  D(43,45,51,54)         53.1769         -DE/DX =    0.0                 !
 ! D173  D(48,45,51,52)         -8.416          -DE/DX =    0.0                 !
 ! D174  D(48,45,51,53)        111.3647         -DE/DX =    0.0                 !
 ! D175  D(48,45,51,54)       -129.3408         -DE/DX =    0.0                 !
 ! D176  D(44,46,48,45)         -6.0707         -DE/DX =    0.0                 !
 ! D177  D(44,46,48,63)        175.0174         -DE/DX =    0.0                 !
 ! D178  D(55,46,48,45)        174.7509         -DE/DX =    0.0                 !
 ! D179  D(55,46,48,63)         -4.161          -DE/DX =    0.0                 !
 ! D180  D(44,46,55,56)        130.5872         -DE/DX =    0.0                 !
 ! D181  D(44,46,55,57)       -112.2329         -DE/DX =    0.0                 !
 ! D182  D(44,46,55,58)          8.6324         -DE/DX =    0.0                 !
 ! D183  D(48,46,55,56)        -50.2708         -DE/DX =    0.0                 !
 ! D184  D(48,46,55,57)         66.909          -DE/DX =    0.0                 !
 ! D185  D(48,46,55,58)       -172.2256         -DE/DX =    0.0                 !
 ! D186  D(42,49,50,18)          8.5535         -DE/DX =    0.0                 !
 ! D187  D(43,49,50,18)        -94.5789         -DE/DX =   -0.0001              !
 ! D188  D(44,49,50,18)        111.5341         -DE/DX =    0.0                 !
 --------------------------------------------------------------------------------
 GradGradGradGradGradGradGradGradGradGradGradGradGradGradGradGradGradGrad

 Symmetry turned off by external request.
 Stoichiometry    C29H29NO3S
 Framework group  C1[X(C29H29NO3S)]
 Deg. of freedom   183
 Full point group                 C1      NOp   1
                          Input orientation:                          
 ---------------------------------------------------------------------
 Center     Atomic      Atomic             Coordinates (Angstroms)
 Number     Number       Type             X           Y           Z
 ---------------------------------------------------------------------
      1          6           0       -3.857044    2.230226   -0.325062
      2          6           0       -2.521433    2.261377    0.055694
      3          6           0       -1.776243    1.072455    0.201084
      4          6           0       -2.420239   -0.146320   -0.085711
      5          6           0       -3.759933   -0.173889   -0.466548
      6          6           0       -4.488695    1.010354   -0.581665
      7          1           0       -4.402557    3.163544   -0.428517
      8          1           0       -2.041133    3.210077    0.248068
      9          1           0       -1.863941   -1.074152   -0.052604
     10          1           0       -4.229702   -1.126605   -0.691969
     11          1           0       -5.532021    0.984843   -0.881661
     12          6           0        0.459956   -0.091484    0.751960
     13          6           0        1.705574   -0.227470    0.113762
     14          6           0        0.015907   -1.147887    1.572411
     15          6           0        2.475454   -1.377733    0.290992
     16          1           0        2.074793    0.560586   -0.533216
     17          6           0        0.784303   -2.293604    1.744397
     18          1           0       -0.932563   -1.057790    2.091480
     19          6           0        2.022475   -2.414223    1.105356
     20          1           0        3.431590   -1.460613   -0.216886
     21          1           0        0.421887   -3.091244    2.386096
     22          1           0        2.624470   -3.307056    1.243489
     23         16           0        0.459152    2.716070   -1.580328
     24          8           0        1.898916    2.942587   -1.756592
     25          8           0       -0.279550    1.743451   -2.384014
     26          6           0       -0.370347    4.293055   -1.661078
     27          6           0       -1.581768    4.393467   -2.343403
     28          6           0        0.193038    5.386169   -1.001358
     29          6           0       -2.239356    5.622522   -2.360539
     30          1           0       -1.998189    3.520137   -2.831785
     31          6           0       -0.486711    6.599227   -1.019669
     32          1           0        1.119687    5.293776   -0.448398
     33          6           0       -1.706702    6.738241   -1.700216
     34          1           0       -3.184305    5.713226   -2.889008
     35          1           0       -0.068957    7.440984   -0.475982
     36          6           0       -2.416835    8.069225   -1.724745
     37          1           0       -1.945414    8.747776   -2.445799
     38          1           0       -3.466901    7.961729   -2.009878
     39          1           0       -2.375225    8.558019   -0.746425
     40          7           0        0.330640    2.269774    0.075944
     41          1           0        1.216015    2.475109    0.536198
     42          6           0       -0.343916    1.147330    0.568449
     43          6           0        1.142508    2.149711    2.909838
     44          6           0       -1.193355    2.947251    2.728784
     45          6           0        1.603098    3.413918    2.620286
     46          6           0       -0.789299    4.218327    2.456039
     47          1           0       -2.253007    2.723264    2.813758
     48          6           0        0.651255    4.505167    2.318231
     49          6           0       -0.265514    1.862552    2.793952
     50          1           0       -0.618720    0.915935    3.186347
     51          6           0        3.067433    3.765433    2.650681
     52          1           0        3.207135    4.784631    2.288621
     53          1           0        3.470618    3.703132    3.669849
     54          1           0        3.663959    3.084266    2.032986
     55          6           0       -1.738700    5.363673    2.264984
     56          1           0       -1.437562    6.222358    2.873067
     57          1           0       -1.719754    5.707765    1.224675
     58          1           0       -2.763190    5.079130    2.521006
     59          6           0        2.102470    1.052441    3.302294
     60          1           0        1.581938    0.123741    3.539989
     61          1           0        2.812661    0.830652    2.497947
     62          1           0        2.692127    1.353323    4.175704
     63          8           0        1.039364    5.638006    1.978444
 ---------------------------------------------------------------------
 Rotational constants (GHZ):           0.1775230           0.1120573           0.0947849
 Unable to Open any file for archive entry.
 1\1\GINC-EXP-1-30\FTS\UB3LYP\6-31G(d,p)\C29H29N1O3S1\JCUZICK\17-Apr-20
 26\0\\# opt=(calcfc,ts,modredundant,noeigen) freq=noraman ub3lyp/6-31g
 (d,p) nosymm guess=mix empiricaldispersion=gd3\\Radical-Radical Coupli
 ng (TS-B)\\0,1\C,-3.857044,2.230226,-0.325062\C,-2.521433,2.261377,0.0
 55694\C,-1.776243,1.072455,0.201084\C,-2.420239,-0.14632,-0.085711\C,-
 3.759933,-0.173889,-0.466548\C,-4.488695,1.010354,-0.581665\H,-4.40255
 7,3.163544,-0.428517\H,-2.041133,3.210077,0.248068\H,-1.863941,-1.0741
 52,-0.052604\H,-4.229702,-1.126605,-0.691969\H,-5.532021,0.984843,-0.8
 81661\C,0.459956,-0.091484,0.75196\C,1.705574,-0.22747,0.113762\C,0.01
 5907,-1.147887,1.572411\C,2.475454,-1.377733,0.290992\H,2.074793,0.560
 586,-0.533216\C,0.784303,-2.293604,1.744397\H,-0.932563,-1.05779,2.091
 48\C,2.022475,-2.414223,1.105356\H,3.43159,-1.460613,-0.216886\H,0.421
 887,-3.091244,2.386096\H,2.62447,-3.307056,1.243489\S,0.459152,2.71607
 ,-1.580328\O,1.898916,2.942587,-1.756592\O,-0.27955,1.743451,-2.384014
 \C,-0.370347,4.293055,-1.661078\C,-1.581768,4.393467,-2.343403\C,0.193
 038,5.386169,-1.001358\C,-2.239356,5.622522,-2.360539\H,-1.998189,3.52
 0137,-2.831785\C,-0.486711,6.599227,-1.019669\H,1.119687,5.293776,-0.4
 48398\C,-1.706702,6.738241,-1.700216\H,-3.184305,5.713226,-2.889008\H,
 -0.068957,7.440984,-0.475982\C,-2.416835,8.069225,-1.724745\H,-1.94541
 4,8.747776,-2.445799\H,-3.466901,7.961729,-2.009878\H,-2.375225,8.5580
 19,-0.746425\N,0.33064,2.269774,0.075944\H,1.216015,2.475109,0.536198\
 C,-0.343916,1.14733,0.568449\C,1.142508,2.149711,2.909838\C,-1.193355,
 2.947251,2.728784\C,1.603098,3.413918,2.620286\C,-0.789299,4.218327,2.
 456039\H,-2.253007,2.723264,2.813758\C,0.651255,4.505167,2.318231\C,-0
 .265514,1.862552,2.793952\H,-0.61872,0.915935,3.186347\C,3.067433,3.76
 5433,2.650681\H,3.207135,4.784631,2.288621\H,3.470618,3.703132,3.66984
 9\H,3.663959,3.084266,2.032986\C,-1.7387,5.363673,2.264984\H,-1.437562
 ,6.222358,2.873067\H,-1.719754,5.707765,1.224675\H,-2.76319,5.07913,2.
 521006\C,2.10247,1.052441,3.302294\H,1.581938,0.123741,3.539989\H,2.81
 2661,0.830652,2.497947\H,2.692127,1.353323,4.175704\O,1.039364,5.63800
 6,1.978444\\Version=ES64L-G16RevC.01\HF=-1801.1941742\S2=0.\S2-1=0.\S2
 A=0.\RMSD=9.159e-09\RMSF=1.314e-04\Dipole=-1.4002882,-0.754849,0.65057
 91\Polar=0.,0.,0.,0.,0.,0.\Quadrupole=6.5311514,2.6308014,-9.1619528,-
 16.2915408,5.489516,-9.4214329\PG=C01 [X(C29H29N1O3S1)]\\@
 The archive entry for this job was punched.


 Human beings, who are almost unique in having the
 ability to learn from the experience of others, are
 also remarkable for their apparent disinclination to do so.
                               -- Douglas Adams,
                                Last Chance to See
 Job cpu time:       0 days 13 hours 10 minutes 12.4 seconds.
 Elapsed time:       0 days  0 hours 49 minutes 42.1 seconds.
 File lengths (MBytes):  RWF=   5293 Int=      0 D2E=      0 Chk=     48 Scr=      1
 Normal termination of Gaussian 16 at Fri Apr 17 07:33:24 2026.
 Link1:  Proceeding to internal job step number  2.
 ----------------------------------------------------------------------
 #N Geom=AllCheck Guess=TCheck SCRF=Check GenChk UB3LYP/6-31G(d,p) Freq
 ----------------------------------------------------------------------
 1/5=1,10=4,11=1,29=7,30=1,38=1,40=1/1,3;
 2/12=2,15=1,40=1/2;
 3/5=1,6=6,7=101,11=2,14=-4,25=1,30=1,70=2,71=2,74=-5,116=2,124=31,140=1/1,2,3;
 4/5=101/1;
 5/5=2,38=6,98=1/2;
 8/6=4,10=90,11=11/1;
 11/6=1,8=1,9=11,15=111,16=1,31=1/1,2,10;
 10/6=1,31=1/2;
 6/7=2,8=2,9=2,10=2,28=1/1;
 7/8=1,10=1,25=1,30=1/1,2,3,16;
 1/5=1,10=4,11=1,30=1/3;
 99//99;
 Structure from the checkpoint file:  "/scratch/jcuzick/job_48160443/Gau-3036371.chk"
 -------------------------------
 Radical-Radical Coupling (TS-B)
 -------------------------------
 Charge =  0 Multiplicity = 1
 Redundant internal coordinates found in file.  (old form).
 C,0,-3.857044,2.230226,-0.325062
 C,0,-2.521433,2.261377,0.055694
 C,0,-1.776243,1.072455,0.201084
 C,0,-2.420239,-0.14632,-0.085711
 C,0,-3.759933,-0.173889,-0.466548
 C,0,-4.488695,1.010354,-0.581665
 H,0,-4.402557,3.163544,-0.428517
 H,0,-2.041133,3.210077,0.248068
 H,0,-1.863941,-1.074152,-0.052604
 H,0,-4.229702,-1.126605,-0.691969
 H,0,-5.532021,0.984843,-0.881661
 C,0,0.459956,-0.091484,0.75196
 C,0,1.705574,-0.22747,0.113762
 C,0,0.015907,-1.147887,1.572411
 C,0,2.475454,-1.377733,0.290992
 H,0,2.074793,0.560586,-0.533216
 C,0,0.784303,-2.293604,1.744397
 H,0,-0.932563,-1.05779,2.09148
 C,0,2.022475,-2.414223,1.105356
 H,0,3.43159,-1.460613,-0.216886
 H,0,0.421887,-3.091244,2.386096
 H,0,2.62447,-3.307056,1.243489
 S,0,0.459152,2.71607,-1.580328
 O,0,1.898916,2.942587,-1.756592
 O,0,-0.27955,1.743451,-2.384014
 C,0,-0.370347,4.293055,-1.661078
 C,0,-1.581768,4.393467,-2.343403
 C,0,0.193038,5.386169,-1.001358
 C,0,-2.239356,5.622522,-2.360539
 H,0,-1.998189,3.520137,-2.831785
 C,0,-0.486711,6.599227,-1.019669
 H,0,1.119687,5.293776,-0.448398
 C,0,-1.706702,6.738241,-1.700216
 H,0,-3.184305,5.713226,-2.889008
 H,0,-0.068957,7.440984,-0.475982
 C,0,-2.416835,8.069225,-1.724745
 H,0,-1.945414,8.747776,-2.445799
 H,0,-3.466901,7.961729,-2.009878
 H,0,-2.375225,8.558019,-0.746425
 N,0,0.33064,2.269774,0.075944
 H,0,1.216015,2.475109,0.536198
 C,0,-0.343916,1.14733,0.568449
 C,0,1.142508,2.149711,2.909838
 C,0,-1.193355,2.947251,2.728784
 C,0,1.603098,3.413918,2.620286
 C,0,-0.789299,4.218327,2.456039
 H,0,-2.253007,2.723264,2.813758
 C,0,0.651255,4.505167,2.318231
 C,0,-0.265514,1.862552,2.793952
 H,0,-0.61872,0.915935,3.186347
 C,0,3.067433,3.765433,2.650681
 H,0,3.207135,4.784631,2.288621
 H,0,3.470618,3.703132,3.669849
 H,0,3.663959,3.084266,2.032986
 C,0,-1.7387,5.363673,2.264984
 H,0,-1.437562,6.222358,2.873067
 H,0,-1.719754,5.707765,1.224675
 H,0,-2.76319,5.07913,2.521006
 C,0,2.10247,1.052441,3.302294
 H,0,1.581938,0.123741,3.539989
 H,0,2.812661,0.830652,2.497947
 H,0,2.692127,1.353323,4.175704
 O,0,1.039364,5.638006,1.978444
 Recover connectivity data from disk.

 GradGradGradGradGradGradGradGradGradGradGradGradGradGradGradGradGradGrad
 Berny optimization.
 Initialization pass.
                           ----------------------------
                           !    Initial Parameters    !
                           ! (Angstroms and Degrees)  !
 --------------------------                            --------------------------
 ! Name  Definition              Value          Derivative Info.                !
 --------------------------------------------------------------------------------
 ! R1    R(1,2)                  1.3892         calculate D2E/DX2 analytically  !
 ! R2    R(1,6)                  1.3975         calculate D2E/DX2 analytically  !
 ! R3    R(1,7)                  1.086          calculate D2E/DX2 analytically  !
 ! R4    R(2,3)                  1.4107         calculate D2E/DX2 analytically  !
 ! R5    R(2,8)                  1.0806         calculate D2E/DX2 analytically  !
 ! R6    R(3,4)                  1.408          calculate D2E/DX2 analytically  !
 ! R7    R(3,42)                 1.4806         calculate D2E/DX2 analytically  !
 ! R8    R(4,5)                  1.393          calculate D2E/DX2 analytically  !
 ! R9    R(4,9)                  1.0823         calculate D2E/DX2 analytically  !
 ! R10   R(5,6)                  1.3953         calculate D2E/DX2 analytically  !
 ! R11   R(5,10)                 1.0859         calculate D2E/DX2 analytically  !
 ! R12   R(6,11)                 1.0859         calculate D2E/DX2 analytically  !
 ! R13   R(12,13)                1.4062         calculate D2E/DX2 analytically  !
 ! R14   R(12,14)                1.4094         calculate D2E/DX2 analytically  !
 ! R15   R(12,42)                1.4881         calculate D2E/DX2 analytically  !
 ! R16   R(13,15)                1.3954         calculate D2E/DX2 analytically  !
 ! R17   R(13,16)                1.0844         calculate D2E/DX2 analytically  !
 ! R18   R(14,17)                1.3902         calculate D2E/DX2 analytically  !
 ! R19   R(14,18)                1.085          calculate D2E/DX2 analytically  !
 ! R20   R(15,19)                1.3938         calculate D2E/DX2 analytically  !
 ! R21   R(15,20)                1.0858         calculate D2E/DX2 analytically  !
 ! R22   R(17,19)                1.3986         calculate D2E/DX2 analytically  !
 ! R23   R(17,21)                1.086          calculate D2E/DX2 analytically  !
 ! R24   R(18,50)                2.2788         calculate D2E/DX2 analytically  !
 ! R25   R(19,22)                1.0856         calculate D2E/DX2 analytically  !
 ! R26   R(23,24)                1.4681         calculate D2E/DX2 analytically  !
 ! R27   R(23,25)                1.462          calculate D2E/DX2 analytically  !
 ! R28   R(23,26)                1.7837         calculate D2E/DX2 analytically  !
 ! R29   R(23,40)                1.7202         calculate D2E/DX2 analytically  !
 ! R30   R(26,27)                1.394          calculate D2E/DX2 analytically  !
 ! R31   R(26,28)                1.3955         calculate D2E/DX2 analytically  !
 ! R32   R(27,29)                1.394          calculate D2E/DX2 analytically  !
 ! R33   R(27,30)                1.0838         calculate D2E/DX2 analytically  !
 ! R34   R(28,31)                1.3906         calculate D2E/DX2 analytically  !
 ! R35   R(28,32)                1.083          calculate D2E/DX2 analytically  !
 ! R36   R(29,33)                1.4016         calculate D2E/DX2 analytically  !
 ! R37   R(29,34)                1.0865         calculate D2E/DX2 analytically  !
 ! R38   R(31,33)                1.4039         calculate D2E/DX2 analytically  !
 ! R39   R(31,35)                1.0857         calculate D2E/DX2 analytically  !
 ! R40   R(33,36)                1.5088         calculate D2E/DX2 analytically  !
 ! R41   R(36,37)                1.0966         calculate D2E/DX2 analytically  !
 ! R42   R(36,38)                1.0934         calculate D2E/DX2 analytically  !
 ! R43   R(36,39)                1.0944         calculate D2E/DX2 analytically  !
 ! R44   R(40,41)                1.0188         calculate D2E/DX2 analytically  !
 ! R45   R(40,42)                1.3991         calculate D2E/DX2 analytically  !
 ! R46   R(41,43)                2.397          calculate D2E/DX2 analytically  !
 ! R47   R(41,45)                2.3183         calculate D2E/DX2 analytically  !
 ! R48   R(42,49)                2.3389         frozen, calculate D2E/DX2 analyt!
 ! R49   R(43,45)                1.3763         calculate D2E/DX2 analytically  !
 ! R50   R(43,49)                1.4417         calculate D2E/DX2 analytically  !
 ! R51   R(43,59)                1.5098         calculate D2E/DX2 analytically  !
 ! R52   R(44,46)                1.3614         calculate D2E/DX2 analytically  !
 ! R53   R(44,47)                1.0864         calculate D2E/DX2 analytically  !
 ! R54   R(44,49)                1.4289         calculate D2E/DX2 analytically  !
 ! R55   R(45,48)                1.4792         calculate D2E/DX2 analytically  !
 ! R56   R(45,51)                1.5062         calculate D2E/DX2 analytically  !
 ! R57   R(46,48)                1.4753         calculate D2E/DX2 analytically  !
 ! R58   R(46,55)                1.4999         calculate D2E/DX2 analytically  !
 ! R59   R(48,63)                1.2448         calculate D2E/DX2 analytically  !
 ! R60   R(49,50)                1.0839         calculate D2E/DX2 analytically  !
 ! R61   R(51,52)                1.0906         calculate D2E/DX2 analytically  !
 ! R62   R(51,53)                1.0978         calculate D2E/DX2 analytically  !
 ! R63   R(51,54)                1.0961         calculate D2E/DX2 analytically  !
 ! R64   R(55,56)                1.0944         calculate D2E/DX2 analytically  !
 ! R65   R(55,57)                1.0959         calculate D2E/DX2 analytically  !
 ! R66   R(55,58)                1.0937         calculate D2E/DX2 analytically  !
 ! R67   R(59,60)                1.0908         calculate D2E/DX2 analytically  !
 ! R68   R(59,61)                1.0957         calculate D2E/DX2 analytically  !
 ! R69   R(59,62)                1.0959         calculate D2E/DX2 analytically  !
 ! A1    A(2,1,6)              120.2963         calculate D2E/DX2 analytically  !
 ! A2    A(2,1,7)              119.3268         calculate D2E/DX2 analytically  !
 ! A3    A(6,1,7)              120.3752         calculate D2E/DX2 analytically  !
 ! A4    A(1,2,3)              121.147          calculate D2E/DX2 analytically  !
 ! A5    A(1,2,8)              119.7234         calculate D2E/DX2 analytically  !
 ! A6    A(3,2,8)              119.1294         calculate D2E/DX2 analytically  !
 ! A7    A(2,3,4)              117.8359         calculate D2E/DX2 analytically  !
 ! A8    A(2,3,42)             119.603          calculate D2E/DX2 analytically  !
 ! A9    A(4,3,42)             122.4661         calculate D2E/DX2 analytically  !
 ! A10   A(3,4,5)              120.8433         calculate D2E/DX2 analytically  !
 ! A11   A(3,4,9)              120.0488         calculate D2E/DX2 analytically  !
 ! A12   A(5,4,9)              119.058          calculate D2E/DX2 analytically  !
 ! A13   A(4,5,6)              120.5349         calculate D2E/DX2 analytically  !
 ! A14   A(4,5,10)             119.3509         calculate D2E/DX2 analytically  !
 ! A15   A(6,5,10)             120.1044         calculate D2E/DX2 analytically  !
 ! A16   A(1,6,5)              119.3183         calculate D2E/DX2 analytically  !
 ! A17   A(1,6,11)             120.3653         calculate D2E/DX2 analytically  !
 ! A18   A(5,6,11)             120.3105         calculate D2E/DX2 analytically  !
 ! A19   A(13,12,14)           118.0871         calculate D2E/DX2 analytically  !
 ! A20   A(13,12,42)           120.2015         calculate D2E/DX2 analytically  !
 ! A21   A(14,12,42)           121.7066         calculate D2E/DX2 analytically  !
 ! A22   A(12,13,15)           120.7164         calculate D2E/DX2 analytically  !
 ! A23   A(12,13,16)           120.1391         calculate D2E/DX2 analytically  !
 ! A24   A(15,13,16)           119.1412         calculate D2E/DX2 analytically  !
 ! A25   A(12,14,17)           121.0382         calculate D2E/DX2 analytically  !
 ! A26   A(12,14,18)           119.4522         calculate D2E/DX2 analytically  !
 ! A27   A(17,14,18)           119.5008         calculate D2E/DX2 analytically  !
 ! A28   A(13,15,19)           120.5234         calculate D2E/DX2 analytically  !
 ! A29   A(13,15,20)           119.2968         calculate D2E/DX2 analytically  !
 ! A30   A(19,15,20)           120.1791         calculate D2E/DX2 analytically  !
 ! A31   A(14,17,19)           120.2571         calculate D2E/DX2 analytically  !
 ! A32   A(14,17,21)           119.6014         calculate D2E/DX2 analytically  !
 ! A33   A(19,17,21)           120.1389         calculate D2E/DX2 analytically  !
 ! A34   A(14,18,50)           100.4508         calculate D2E/DX2 analytically  !
 ! A35   A(15,19,17)           119.3772         calculate D2E/DX2 analytically  !
 ! A36   A(15,19,22)           120.3777         calculate D2E/DX2 analytically  !
 ! A37   A(17,19,22)           120.2451         calculate D2E/DX2 analytically  !
 ! A38   A(24,23,25)           122.1506         calculate D2E/DX2 analytically  !
 ! A39   A(24,23,26)           108.3142         calculate D2E/DX2 analytically  !
 ! A40   A(24,23,40)           103.2325         calculate D2E/DX2 analytically  !
 ! A41   A(25,23,26)           109.1659         calculate D2E/DX2 analytically  !
 ! A42   A(25,23,40)           108.5988         calculate D2E/DX2 analytically  !
 ! A43   A(26,23,40)           103.7823         calculate D2E/DX2 analytically  !
 ! A44   A(23,26,27)           119.3401         calculate D2E/DX2 analytically  !
 ! A45   A(23,26,28)           118.9065         calculate D2E/DX2 analytically  !
 ! A46   A(27,26,28)           121.7224         calculate D2E/DX2 analytically  !
 ! A47   A(26,27,29)           118.6506         calculate D2E/DX2 analytically  !
 ! A48   A(26,27,30)           119.7639         calculate D2E/DX2 analytically  !
 ! A49   A(29,27,30)           121.5781         calculate D2E/DX2 analytically  !
 ! A50   A(26,28,31)           118.6663         calculate D2E/DX2 analytically  !
 ! A51   A(26,28,32)           121.3287         calculate D2E/DX2 analytically  !
 ! A52   A(31,28,32)           119.9573         calculate D2E/DX2 analytically  !
 ! A53   A(27,29,33)           121.1151         calculate D2E/DX2 analytically  !
 ! A54   A(27,29,34)           119.3311         calculate D2E/DX2 analytically  !
 ! A55   A(33,29,34)           119.5522         calculate D2E/DX2 analytically  !
 ! A56   A(28,31,33)           121.1672         calculate D2E/DX2 analytically  !
 ! A57   A(28,31,35)           118.7929         calculate D2E/DX2 analytically  !
 ! A58   A(33,31,35)           120.0251         calculate D2E/DX2 analytically  !
 ! A59   A(29,33,31)           118.6726         calculate D2E/DX2 analytically  !
 ! A60   A(29,33,36)           121.0434         calculate D2E/DX2 analytically  !
 ! A61   A(31,33,36)           120.2819         calculate D2E/DX2 analytically  !
 ! A62   A(33,36,37)           110.7448         calculate D2E/DX2 analytically  !
 ! A63   A(33,36,38)           111.6866         calculate D2E/DX2 analytically  !
 ! A64   A(33,36,39)           111.1964         calculate D2E/DX2 analytically  !
 ! A65   A(37,36,38)           107.5908         calculate D2E/DX2 analytically  !
 ! A66   A(37,36,39)           107.1617         calculate D2E/DX2 analytically  !
 ! A67   A(38,36,39)           108.2726         calculate D2E/DX2 analytically  !
 ! A68   A(23,40,41)           108.5286         calculate D2E/DX2 analytically  !
 ! A69   A(23,40,42)           125.6697         calculate D2E/DX2 analytically  !
 ! A70   A(41,40,42)           114.9404         calculate D2E/DX2 analytically  !
 ! A71   A(40,41,43)           113.1641         calculate D2E/DX2 analytically  !
 ! A72   A(40,41,45)           129.261          calculate D2E/DX2 analytically  !
 ! A73   A(3,42,12)            120.7358         calculate D2E/DX2 analytically  !
 ! A74   A(3,42,40)            114.8126         calculate D2E/DX2 analytically  !
 ! A75   A(3,42,49)            106.498          calculate D2E/DX2 analytically  !
 ! A76   A(12,42,40)           116.7962         calculate D2E/DX2 analytically  !
 ! A77   A(12,42,49)            96.8411         calculate D2E/DX2 analytically  !
 ! A78   A(40,42,49)            94.2127         calculate D2E/DX2 analytically  !
 ! A79   A(41,43,49)            88.7044         calculate D2E/DX2 analytically  !
 ! A80   A(41,43,59)           109.6679         calculate D2E/DX2 analytically  !
 ! A81   A(45,43,49)           119.5312         calculate D2E/DX2 analytically  !
 ! A82   A(45,43,59)           120.6287         calculate D2E/DX2 analytically  !
 ! A83   A(49,43,59)           119.8089         calculate D2E/DX2 analytically  !
 ! A84   A(46,44,47)           119.846          calculate D2E/DX2 analytically  !
 ! A85   A(46,44,49)           121.6811         calculate D2E/DX2 analytically  !
 ! A86   A(47,44,49)           118.2476         calculate D2E/DX2 analytically  !
 ! A87   A(41,45,48)            90.4431         calculate D2E/DX2 analytically  !
 ! A88   A(41,45,51)           105.96           calculate D2E/DX2 analytically  !
 ! A89   A(43,45,48)           120.3482         calculate D2E/DX2 analytically  !
 ! A90   A(43,45,51)           122.3756         calculate D2E/DX2 analytically  !
 ! A91   A(48,45,51)           117.2281         calculate D2E/DX2 analytically  !
 ! A92   A(44,46,48)           119.3451         calculate D2E/DX2 analytically  !
 ! A93   A(44,46,55)           123.4101         calculate D2E/DX2 analytically  !
 ! A94   A(48,46,55)           117.2393         calculate D2E/DX2 analytically  !
 ! A95   A(45,48,46)           117.7634         calculate D2E/DX2 analytically  !
 ! A96   A(45,48,63)           121.7695         calculate D2E/DX2 analytically  !
 ! A97   A(46,48,63)           120.4579         calculate D2E/DX2 analytically  !
 ! A98   A(42,49,43)            99.7955         calculate D2E/DX2 analytically  !
 ! A99   A(42,49,44)            99.6117         calculate D2E/DX2 analytically  !
 ! A100  A(42,49,50)            93.812          calculate D2E/DX2 analytically  !
 ! A101  A(43,49,44)           119.1207         calculate D2E/DX2 analytically  !
 ! A102  A(43,49,50)           117.5887         calculate D2E/DX2 analytically  !
 ! A103  A(44,49,50)           117.8975         calculate D2E/DX2 analytically  !
 ! A104  A(18,50,49)           128.8572         calculate D2E/DX2 analytically  !
 ! A105  A(45,51,52)           109.6292         calculate D2E/DX2 analytically  !
 ! A106  A(45,51,53)           111.2564         calculate D2E/DX2 analytically  !
 ! A107  A(45,51,54)           111.8818         calculate D2E/DX2 analytically  !
 ! A108  A(52,51,53)           108.3126         calculate D2E/DX2 analytically  !
 ! A109  A(52,51,54)           108.9034         calculate D2E/DX2 analytically  !
 ! A110  A(53,51,54)           106.7407         calculate D2E/DX2 analytically  !
 ! A111  A(46,55,56)           110.7437         calculate D2E/DX2 analytically  !
 ! A112  A(46,55,57)           110.4711         calculate D2E/DX2 analytically  !
 ! A113  A(46,55,58)           111.3739         calculate D2E/DX2 analytically  !
 ! A114  A(56,55,57)           106.041          calculate D2E/DX2 analytically  !
 ! A115  A(56,55,58)           109.379          calculate D2E/DX2 analytically  !
 ! A116  A(57,55,58)           108.6693         calculate D2E/DX2 analytically  !
 ! A117  A(43,59,60)           111.8373         calculate D2E/DX2 analytically  !
 ! A118  A(43,59,61)           111.6172         calculate D2E/DX2 analytically  !
 ! A119  A(43,59,62)           110.4704         calculate D2E/DX2 analytically  !
 ! A120  A(60,59,61)           107.273          calculate D2E/DX2 analytically  !
 ! A121  A(60,59,62)           108.4709         calculate D2E/DX2 analytically  !
 ! A122  A(61,59,62)           106.9704         calculate D2E/DX2 analytically  !
 ! D1    D(6,1,2,3)             -0.4355         calculate D2E/DX2 analytically  !
 ! D2    D(6,1,2,8)            179.7605         calculate D2E/DX2 analytically  !
 ! D3    D(7,1,2,3)           -179.9696         calculate D2E/DX2 analytically  !
 ! D4    D(7,1,2,8)              0.2264         calculate D2E/DX2 analytically  !
 ! D5    D(2,1,6,5)             -0.7396         calculate D2E/DX2 analytically  !
 ! D6    D(2,1,6,11)          -179.8538         calculate D2E/DX2 analytically  !
 ! D7    D(7,1,6,5)            178.7895         calculate D2E/DX2 analytically  !
 ! D8    D(7,1,6,11)            -0.3246         calculate D2E/DX2 analytically  !
 ! D9    D(1,2,3,4)              1.6048         calculate D2E/DX2 analytically  !
 ! D10   D(1,2,3,42)           178.1497         calculate D2E/DX2 analytically  !
 ! D11   D(8,2,3,4)           -178.59           calculate D2E/DX2 analytically  !
 ! D12   D(8,2,3,42)            -2.0451         calculate D2E/DX2 analytically  !
 ! D13   D(2,3,4,5)             -1.6376         calculate D2E/DX2 analytically  !
 ! D14   D(2,3,4,9)            175.7682         calculate D2E/DX2 analytically  !
 ! D15   D(42,3,4,5)          -178.0768         calculate D2E/DX2 analytically  !
 ! D16   D(42,3,4,9)            -0.6711         calculate D2E/DX2 analytically  !
 ! D17   D(2,3,42,12)          178.9135         calculate D2E/DX2 analytically  !
 ! D18   D(2,3,42,40)          -32.5757         calculate D2E/DX2 analytically  !
 ! D19   D(2,3,42,49)           70.2119         calculate D2E/DX2 analytically  !
 ! D20   D(4,3,42,12)           -4.708          calculate D2E/DX2 analytically  !
 ! D21   D(4,3,42,40)          143.8028         calculate D2E/DX2 analytically  !
 ! D22   D(4,3,42,49)         -113.4095         calculate D2E/DX2 analytically  !
 ! D23   D(3,4,5,6)              0.5092         calculate D2E/DX2 analytically  !
 ! D24   D(3,4,5,10)           179.3766         calculate D2E/DX2 analytically  !
 ! D25   D(9,4,5,6)           -176.9219         calculate D2E/DX2 analytically  !
 ! D26   D(9,4,5,10)             1.9455         calculate D2E/DX2 analytically  !
 ! D27   D(4,5,6,1)              0.7037         calculate D2E/DX2 analytically  !
 ! D28   D(4,5,6,11)           179.8183         calculate D2E/DX2 analytically  !
 ! D29   D(10,5,6,1)          -178.1553         calculate D2E/DX2 analytically  !
 ! D30   D(10,5,6,11)            0.9594         calculate D2E/DX2 analytically  !
 ! D31   D(14,12,13,15)          0.0191         calculate D2E/DX2 analytically  !
 ! D32   D(14,12,13,16)        179.3623         calculate D2E/DX2 analytically  !
 ! D33   D(42,12,13,15)        179.2357         calculate D2E/DX2 analytically  !
 ! D34   D(42,12,13,16)         -1.4212         calculate D2E/DX2 analytically  !
 ! D35   D(13,12,14,17)         -0.1575         calculate D2E/DX2 analytically  !
 ! D36   D(13,12,14,18)        178.7636         calculate D2E/DX2 analytically  !
 ! D37   D(42,12,14,17)       -179.3616         calculate D2E/DX2 analytically  !
 ! D38   D(42,12,14,18)         -0.4405         calculate D2E/DX2 analytically  !
 ! D39   D(13,12,42,3)         130.4896         calculate D2E/DX2 analytically  !
 ! D40   D(13,12,42,40)        -17.4267         calculate D2E/DX2 analytically  !
 ! D41   D(13,12,42,49)       -115.6759         calculate D2E/DX2 analytically  !
 ! D42   D(14,12,42,3)         -50.3228         calculate D2E/DX2 analytically  !
 ! D43   D(14,12,42,40)        161.7608         calculate D2E/DX2 analytically  !
 ! D44   D(14,12,42,49)         63.5116         calculate D2E/DX2 analytically  !
 ! D45   D(12,13,15,19)         -0.0007         calculate D2E/DX2 analytically  !
 ! D46   D(12,13,15,20)        179.6919         calculate D2E/DX2 analytically  !
 ! D47   D(16,13,15,19)       -179.3503         calculate D2E/DX2 analytically  !
 ! D48   D(16,13,15,20)          0.3423         calculate D2E/DX2 analytically  !
 ! D49   D(12,14,17,19)          0.2776         calculate D2E/DX2 analytically  !
 ! D50   D(12,14,17,21)        179.6835         calculate D2E/DX2 analytically  !
 ! D51   D(18,14,17,19)       -178.6429         calculate D2E/DX2 analytically  !
 ! D52   D(18,14,17,21)          0.7629         calculate D2E/DX2 analytically  !
 ! D53   D(12,14,18,50)        -54.1016         calculate D2E/DX2 analytically  !
 ! D54   D(17,14,18,50)        124.8362         calculate D2E/DX2 analytically  !
 ! D55   D(13,15,19,17)          0.1171         calculate D2E/DX2 analytically  !
 ! D56   D(13,15,19,22)       -179.8513         calculate D2E/DX2 analytically  !
 ! D57   D(20,15,19,17)       -179.5728         calculate D2E/DX2 analytically  !
 ! D58   D(20,15,19,22)          0.4588         calculate D2E/DX2 analytically  !
 ! D59   D(14,17,19,15)         -0.2542         calculate D2E/DX2 analytically  !
 ! D60   D(14,17,19,22)        179.7142         calculate D2E/DX2 analytically  !
 ! D61   D(21,17,19,15)       -179.6569         calculate D2E/DX2 analytically  !
 ! D62   D(21,17,19,22)          0.3116         calculate D2E/DX2 analytically  !
 ! D63   D(14,18,50,49)         49.3022         calculate D2E/DX2 analytically  !
 ! D64   D(24,23,26,27)        139.4066         calculate D2E/DX2 analytically  !
 ! D65   D(24,23,26,28)        -42.5839         calculate D2E/DX2 analytically  !
 ! D66   D(25,23,26,27)          4.2956         calculate D2E/DX2 analytically  !
 ! D67   D(25,23,26,28)       -177.6949         calculate D2E/DX2 analytically  !
 ! D68   D(40,23,26,27)       -111.3576         calculate D2E/DX2 analytically  !
 ! D69   D(40,23,26,28)         66.6519         calculate D2E/DX2 analytically  !
 ! D70   D(24,23,40,41)         12.2742         calculate D2E/DX2 analytically  !
 ! D71   D(24,23,40,42)       -129.7239         calculate D2E/DX2 analytically  !
 ! D72   D(25,23,40,41)        143.2632         calculate D2E/DX2 analytically  !
 ! D73   D(25,23,40,42)          1.2651         calculate D2E/DX2 analytically  !
 ! D74   D(26,23,40,41)       -100.6833         calculate D2E/DX2 analytically  !
 ! D75   D(26,23,40,42)        117.3185         calculate D2E/DX2 analytically  !
 ! D76   D(23,26,27,29)        177.9352         calculate D2E/DX2 analytically  !
 ! D77   D(23,26,27,30)         -1.0891         calculate D2E/DX2 analytically  !
 ! D78   D(28,26,27,29)         -0.0162         calculate D2E/DX2 analytically  !
 ! D79   D(28,26,27,30)       -179.0405         calculate D2E/DX2 analytically  !
 ! D80   D(23,26,28,31)       -177.2908         calculate D2E/DX2 analytically  !
 ! D81   D(23,26,28,32)          0.194          calculate D2E/DX2 analytically  !
 ! D82   D(27,26,28,31)          0.6692         calculate D2E/DX2 analytically  !
 ! D83   D(27,26,28,32)        178.1541         calculate D2E/DX2 analytically  !
 ! D84   D(26,27,29,33)         -0.4573         calculate D2E/DX2 analytically  !
 ! D85   D(26,27,29,34)       -179.9978         calculate D2E/DX2 analytically  !
 ! D86   D(30,27,29,33)        178.5486         calculate D2E/DX2 analytically  !
 ! D87   D(30,27,29,34)         -0.9919         calculate D2E/DX2 analytically  !
 ! D88   D(26,28,31,33)         -0.8664         calculate D2E/DX2 analytically  !
 ! D89   D(26,28,31,35)        177.7336         calculate D2E/DX2 analytically  !
 ! D90   D(32,28,31,33)       -178.3867         calculate D2E/DX2 analytically  !
 ! D91   D(32,28,31,35)          0.2133         calculate D2E/DX2 analytically  !
 ! D92   D(27,29,33,31)          0.2644         calculate D2E/DX2 analytically  !
 ! D93   D(27,29,33,36)        179.7365         calculate D2E/DX2 analytically  !
 ! D94   D(34,29,33,31)        179.8039         calculate D2E/DX2 analytically  !
 ! D95   D(34,29,33,36)         -0.724          calculate D2E/DX2 analytically  !
 ! D96   D(28,31,33,29)          0.4115         calculate D2E/DX2 analytically  !
 ! D97   D(28,31,33,36)       -179.0647         calculate D2E/DX2 analytically  !
 ! D98   D(35,31,33,29)       -178.1714         calculate D2E/DX2 analytically  !
 ! D99   D(35,31,33,36)          2.3524         calculate D2E/DX2 analytically  !
 ! D100  D(29,33,36,37)       -101.7735         calculate D2E/DX2 analytically  !
 ! D101  D(29,33,36,38)         18.1214         calculate D2E/DX2 analytically  !
 ! D102  D(29,33,36,39)        139.194          calculate D2E/DX2 analytically  !
 ! D103  D(31,33,36,37)         77.6901         calculate D2E/DX2 analytically  !
 ! D104  D(31,33,36,38)       -162.415          calculate D2E/DX2 analytically  !
 ! D105  D(31,33,36,39)        -41.3423         calculate D2E/DX2 analytically  !
 ! D106  D(23,40,41,43)        173.43           calculate D2E/DX2 analytically  !
 ! D107  D(23,40,41,45)        138.1592         calculate D2E/DX2 analytically  !
 ! D108  D(42,40,41,43)        -40.0482         calculate D2E/DX2 analytically  !
 ! D109  D(42,40,41,45)        -75.319          calculate D2E/DX2 analytically  !
 ! D110  D(23,40,42,3)         -57.3143         calculate D2E/DX2 analytically  !
 ! D111  D(23,40,42,12)         92.4884         calculate D2E/DX2 analytically  !
 ! D112  D(23,40,42,49)       -167.6651         calculate D2E/DX2 analytically  !
 ! D113  D(41,40,42,3)         162.7623         calculate D2E/DX2 analytically  !
 ! D114  D(41,40,42,12)        -47.435          calculate D2E/DX2 analytically  !
 ! D115  D(41,40,42,49)         52.4115         calculate D2E/DX2 analytically  !
 ! D116  D(40,41,43,49)         -4.4718         calculate D2E/DX2 analytically  !
 ! D117  D(40,41,43,59)        116.8576         calculate D2E/DX2 analytically  !
 ! D118  D(40,41,45,48)        -49.0263         calculate D2E/DX2 analytically  !
 ! D119  D(40,41,45,51)       -167.5879         calculate D2E/DX2 analytically  !
 ! D120  D(3,42,49,43)        -168.699          calculate D2E/DX2 analytically  !
 ! D121  D(3,42,49,44)         -46.6854         calculate D2E/DX2 analytically  !
 ! D122  D(3,42,49,50)          72.4509         calculate D2E/DX2 analytically  !
 ! D123  D(12,42,49,43)         66.3847         calculate D2E/DX2 analytically  !
 ! D124  D(12,42,49,44)       -171.6018         calculate D2E/DX2 analytically  !
 ! D125  D(12,42,49,50)        -52.4654         calculate D2E/DX2 analytically  !
 ! D126  D(40,42,49,43)        -51.2685         calculate D2E/DX2 analytically  !
 ! D127  D(40,42,49,44)         70.7451         calculate D2E/DX2 analytically  !
 ! D128  D(40,42,49,50)       -170.1185         calculate D2E/DX2 analytically  !
 ! D129  D(49,43,45,48)          5.8343         calculate D2E/DX2 analytically  !
 ! D130  D(49,43,45,51)       -176.7599         calculate D2E/DX2 analytically  !
 ! D131  D(59,43,45,48)       -176.2021         calculate D2E/DX2 analytically  !
 ! D132  D(59,43,45,51)          1.2037         calculate D2E/DX2 analytically  !
 ! D133  D(41,43,49,42)         24.5847         calculate D2E/DX2 analytically  !
 ! D134  D(41,43,49,44)        -82.2814         calculate D2E/DX2 analytically  !
 ! D135  D(41,43,49,50)        124.1597         calculate D2E/DX2 analytically  !
 ! D136  D(45,43,49,42)         90.5389         calculate D2E/DX2 analytically  !
 ! D137  D(45,43,49,44)        -16.3272         calculate D2E/DX2 analytically  !
 ! D138  D(45,43,49,50)       -169.8862         calculate D2E/DX2 analytically  !
 ! D139  D(59,43,49,42)        -87.4417         calculate D2E/DX2 analytically  !
 ! D140  D(59,43,49,44)        165.6923         calculate D2E/DX2 analytically  !
 ! D141  D(59,43,49,50)         12.1333         calculate D2E/DX2 analytically  !
 ! D142  D(41,43,59,60)       -104.6314         calculate D2E/DX2 analytically  !
 ! D143  D(41,43,59,61)         15.5591         calculate D2E/DX2 analytically  !
 ! D144  D(41,43,59,62)        134.4439         calculate D2E/DX2 analytically  !
 ! D145  D(45,43,59,60)        177.6114         calculate D2E/DX2 analytically  !
 ! D146  D(45,43,59,61)        -62.1981         calculate D2E/DX2 analytically  !
 ! D147  D(45,43,59,62)         56.6867         calculate D2E/DX2 analytically  !
 ! D148  D(49,43,59,60)         -4.4306         calculate D2E/DX2 analytically  !
 ! D149  D(49,43,59,61)        115.7598         calculate D2E/DX2 analytically  !
 ! D150  D(49,43,59,62)       -125.3553         calculate D2E/DX2 analytically  !
 ! D151  D(47,44,46,48)       -178.8711         calculate D2E/DX2 analytically  !
 ! D152  D(47,44,46,55)          0.2538         calculate D2E/DX2 analytically  !
 ! D153  D(49,44,46,48)         -4.4205         calculate D2E/DX2 analytically  !
 ! D154  D(49,44,46,55)        174.7043         calculate D2E/DX2 analytically  !
 ! D155  D(46,44,49,42)        -91.1703         calculate D2E/DX2 analytically  !
 ! D156  D(46,44,49,43)         15.799          calculate D2E/DX2 analytically  !
 ! D157  D(46,44,49,50)        169.2771         calculate D2E/DX2 analytically  !
 ! D158  D(47,44,49,42)         83.3658         calculate D2E/DX2 analytically  !
 ! D159  D(47,44,49,43)       -169.6648         calculate D2E/DX2 analytically  !
 ! D160  D(47,44,49,50)        -16.1867         calculate D2E/DX2 analytically  !
 ! D161  D(41,45,48,46)         79.4902         calculate D2E/DX2 analytically  !
 ! D162  D(41,45,48,63)       -101.6131         calculate D2E/DX2 analytically  !
 ! D163  D(43,45,48,46)          5.2797         calculate D2E/DX2 analytically  !
 ! D164  D(43,45,48,63)       -175.8235         calculate D2E/DX2 analytically  !
 ! D165  D(51,45,48,46)       -172.2564         calculate D2E/DX2 analytically  !
 ! D166  D(51,45,48,63)          6.6404         calculate D2E/DX2 analytically  !
 ! D167  D(41,45,51,52)         90.5706         calculate D2E/DX2 analytically  !
 ! D168  D(41,45,51,53)       -149.6487         calculate D2E/DX2 analytically  !
 ! D169  D(41,45,51,54)        -30.3542         calculate D2E/DX2 analytically  !
 ! D170  D(43,45,51,52)        174.1017         calculate D2E/DX2 analytically  !
 ! D171  D(43,45,51,53)        -66.1176         calculate D2E/DX2 analytically  !
 ! D172  D(43,45,51,54)         53.1769         calculate D2E/DX2 analytically  !
 ! D173  D(48,45,51,52)         -8.416          calculate D2E/DX2 analytically  !
 ! D174  D(48,45,51,53)        111.3647         calculate D2E/DX2 analytically  !
 ! D175  D(48,45,51,54)       -129.3408         calculate D2E/DX2 analytically  !
 ! D176  D(44,46,48,45)         -6.0707         calculate D2E/DX2 analytically  !
 ! D177  D(44,46,48,63)        175.0174         calculate D2E/DX2 analytically  !
 ! D178  D(55,46,48,45)        174.7509         calculate D2E/DX2 analytically  !
 ! D179  D(55,46,48,63)         -4.161          calculate D2E/DX2 analytically  !
 ! D180  D(44,46,55,56)        130.5872         calculate D2E/DX2 analytically  !
 ! D181  D(44,46,55,57)       -112.2329         calculate D2E/DX2 analytically  !
 ! D182  D(44,46,55,58)          8.6324         calculate D2E/DX2 analytically  !
 ! D183  D(48,46,55,56)        -50.2708         calculate D2E/DX2 analytically  !
 ! D184  D(48,46,55,57)         66.909          calculate D2E/DX2 analytically  !
 ! D185  D(48,46,55,58)       -172.2256         calculate D2E/DX2 analytically  !
 ! D186  D(42,49,50,18)          8.5535         calculate D2E/DX2 analytically  !
 ! D187  D(43,49,50,18)        -94.5789         calculate D2E/DX2 analytically  !
 ! D188  D(44,49,50,18)        111.5341         calculate D2E/DX2 analytically  !
 --------------------------------------------------------------------------------
 Trust Radius=3.00D-01 FncErr=1.00D-07 GrdErr=1.00D-07 EigMax=2.50D+02 EigMin=1.00D-04
 Number of steps in this run=      2 maximum allowed number of steps=      2.
 Search for a saddle point of order  1.
 GradGradGradGradGradGradGradGradGradGradGradGradGradGradGradGradGradGrad

 Symmetry turned off by external request.
 Stoichiometry    C29H29NO3S
 Framework group  C1[X(C29H29NO3S)]
 Deg. of freedom   183
 Full point group                 C1      NOp   1
                          Input orientation:                          
 ---------------------------------------------------------------------
 Center     Atomic      Atomic             Coordinates (Angstroms)
 Number     Number       Type             X           Y           Z
 ---------------------------------------------------------------------
      1          6           0       -3.857044    2.230226   -0.325062
      2          6           0       -2.521433    2.261377    0.055694
      3          6           0       -1.776243    1.072455    0.201084
      4          6           0       -2.420239   -0.146320   -0.085711
      5          6           0       -3.759933   -0.173889   -0.466548
      6          6           0       -4.488695    1.010354   -0.581665
      7          1           0       -4.402557    3.163544   -0.428517
      8          1           0       -2.041133    3.210077    0.248068
      9          1           0       -1.863941   -1.074152   -0.052604
     10          1           0       -4.229702   -1.126605   -0.691969
     11          1           0       -5.532021    0.984843   -0.881661
     12          6           0        0.459956   -0.091484    0.751960
     13          6           0        1.705574   -0.227470    0.113762
     14          6           0        0.015907   -1.147887    1.572411
     15          6           0        2.475454   -1.377733    0.290992
     16          1           0        2.074793    0.560586   -0.533216
     17          6           0        0.784303   -2.293604    1.744397
     18          1           0       -0.932563   -1.057790    2.091480
     19          6           0        2.022475   -2.414223    1.105356
     20          1           0        3.431590   -1.460613   -0.216886
     21          1           0        0.421887   -3.091244    2.386096
     22          1           0        2.624470   -3.307056    1.243489
     23         16           0        0.459152    2.716070   -1.580328
     24          8           0        1.898916    2.942587   -1.756592
     25          8           0       -0.279550    1.743451   -2.384014
     26          6           0       -0.370347    4.293055   -1.661078
     27          6           0       -1.581768    4.393467   -2.343403
     28          6           0        0.193038    5.386169   -1.001358
     29          6           0       -2.239356    5.622522   -2.360539
     30          1           0       -1.998189    3.520137   -2.831785
     31          6           0       -0.486711    6.599227   -1.019669
     32          1           0        1.119687    5.293776   -0.448398
     33          6           0       -1.706702    6.738241   -1.700216
     34          1           0       -3.184305    5.713226   -2.889008
     35          1           0       -0.068957    7.440984   -0.475982
     36          6           0       -2.416835    8.069225   -1.724745
     37          1           0       -1.945414    8.747776   -2.445799
     38          1           0       -3.466901    7.961729   -2.009878
     39          1           0       -2.375225    8.558019   -0.746425
     40          7           0        0.330640    2.269774    0.075944
     41          1           0        1.216015    2.475109    0.536198
     42          6           0       -0.343916    1.147330    0.568449
     43          6           0        1.142508    2.149711    2.909838
     44          6           0       -1.193355    2.947251    2.728784
     45          6           0        1.603098    3.413918    2.620286
     46          6           0       -0.789299    4.218327    2.456039
     47          1           0       -2.253007    2.723264    2.813758
     48          6           0        0.651255    4.505167    2.318231
     49          6           0       -0.265514    1.862552    2.793952
     50          1           0       -0.618720    0.915935    3.186347
     51          6           0        3.067433    3.765433    2.650681
     52          1           0        3.207135    4.784631    2.288621
     53          1           0        3.470618    3.703132    3.669849
     54          1           0        3.663959    3.084266    2.032986
     55          6           0       -1.738700    5.363673    2.264984
     56          1           0       -1.437562    6.222358    2.873067
     57          1           0       -1.719754    5.707765    1.224675
     58          1           0       -2.763190    5.079130    2.521006
     59          6           0        2.102470    1.052441    3.302294
     60          1           0        1.581938    0.123741    3.539989
     61          1           0        2.812661    0.830652    2.497947
     62          1           0        2.692127    1.353323    4.175704
     63          8           0        1.039364    5.638006    1.978444
 ---------------------------------------------------------------------
 Rotational constants (GHZ):           0.1775230           0.1120573           0.0947849
 Standard basis: 6-31G(d,p) (6D, 7F)
   659 basis functions,  1179 primitive gaussians,   659 cartesian basis functions
   125 alpha electrons      125 beta electrons
       nuclear repulsion energy      4007.0125923138 Hartrees.
 NAtoms=   63 NActive=   63 NUniq=   63 SFac= 1.00D+00 NAtFMM=   60 NAOKFM=T Big=T
 Integral buffers will be    131072 words long.
 Raffenetti 2 integral format.
 Two-electron integral symmetry is turned off.
 Nuclear repulsion after empirical dispersion term =     4006.9129741520 Hartrees.
 One-electron integrals computed using PRISM.
 NBasis=   659 RedAO= T EigKep=  4.30D-04  NBF=   659
 NBsUse=   659 1.00D-06 EigRej= -1.00D+00 NBFU=   659
 Initial guess from the checkpoint file:  "/scratch/jcuzick/job_48160443/Gau-3036371.chk"
 B after Tr=     0.000000    0.000000    0.000000
         Rot=    1.000000    0.000000    0.000000    0.000000 Ang=   0.00 deg.
 Initial guess <Sx>= 0.0000 <Sy>= 0.0000 <Sz>= 0.0000 <S**2>= 0.0000 S= 0.0000
 Requested convergence on RMS density matrix=1.00D-08 within 128 cycles.
 Requested convergence on MAX density matrix=1.00D-06.
 Requested convergence on             energy=1.00D-06.
 No special actions if energy rises.
 SCF Done:  E(UB3LYP) =  -1801.19417417     A.U. after    1 cycles
            NFock=  1  Conv=0.15D-08     -V/T= 2.0083
 <Sx>= 0.0000 <Sy>= 0.0000 <Sz>= 0.0000 <S**2>= 0.0000 S= 0.0000
 <L.S>= 0.000000000000E+00
 Annihilation of the first spin contaminant:
 S**2 before annihilation     0.0000,   after    -0.0000
 DoSCS=F DFT=T ScalE2(SS,OS)=  1.000000  1.000000
 Range of M.O.s used for correlation:     1   659
 NBasis=   659 NAE=   125 NBE=   125 NFC=     0 NFV=     0
 NROrb=    659 NOA=   125 NOB=   125 NVA=   534 NVB=   534

 **** Warning!!: The smallest alpha delta epsilon is  0.95014146D-01


 **** Warning!!: The smallest beta delta epsilon is  0.95014113D-01

 Symmetrizing basis deriv contribution to polar:
 IMax=3 JMax=2 DiffMx= 0.00D+00
 G2DrvN: will do    64 centers at a time, making    1 passes.
 Calling FoFCou, ICntrl=  3107 FMM=T I1Cent=   0 AccDes= 0.00D+00.
 End of G2Drv F.D. properties file   721 does not exist.
 End of G2Drv F.D. properties file   722 does not exist.
 End of G2Drv F.D. properties file   788 does not exist.
          IDoAtm=11111111111111111111111111111111111111111111111111
          IDoAtm=1111111111111
          Differentiating once with respect to electric field.
                with respect to dipole field.
          Differentiating once with respect to nuclear coordinates.
 CalDSu exits because no D1Ps are significant.
          There are   192 degrees of freedom in the 1st order CPHF.  IDoFFX=6 NUNeed=     3.
    189 vectors produced by pass  0 Test12= 1.34D-13 1.00D-09 XBig12= 2.21D+03 2.34D+01.
 AX will form    72 AO Fock derivatives at one time.
    189 vectors produced by pass  1 Test12= 1.34D-13 1.00D-09 XBig12= 5.67D+02 2.14D+00.
    189 vectors produced by pass  2 Test12= 1.34D-13 1.00D-09 XBig12= 4.05D+00 9.87D-02.
    189 vectors produced by pass  3 Test12= 1.34D-13 1.00D-09 XBig12= 1.32D-02 5.71D-03.
    189 vectors produced by pass  4 Test12= 1.34D-13 1.00D-09 XBig12= 2.41D-05 3.22D-04.
    159 vectors produced by pass  5 Test12= 1.34D-13 1.00D-09 XBig12= 2.91D-08 9.00D-06.
     35 vectors produced by pass  6 Test12= 1.34D-13 1.00D-09 XBig12= 3.02D-11 2.50D-07.
      3 vectors produced by pass  7 Test12= 1.34D-13 1.00D-09 XBig12= 1.67D-13 6.29D-08.
      3 vectors produced by pass  8 Test12= 1.34D-13 1.00D-09 XBig12= 7.34D-15 9.98D-09.
      3 vectors produced by pass  9 Test12= 1.34D-13 1.00D-09 XBig12= 1.43D-14 7.21D-09.
      2 vectors produced by pass 10 Test12= 1.34D-13 1.00D-09 XBig12= 5.01D-15 4.80D-09.
      1 vectors produced by pass 11 Test12= 1.34D-13 1.00D-09 XBig12= 4.24D-17 1.58D-09.
 InvSVY:  IOpt=1 It=  1 EMax= 1.42D-14
 Solved reduced A of dimension  1151 with   192 vectors.
 Isotropic polarizability for W=    0.000000      366.04 Bohr**3.
 End of Minotr F.D. properties file   721 does not exist.
 End of Minotr F.D. properties file   722 does not exist.
 End of Minotr F.D. properties file   788 does not exist.

 **********************************************************************

            Population analysis using the SCF Density.

 **********************************************************************

 Alpha  occ. eigenvalues --  -89.11668 -19.14945 -19.14729 -19.10457 -14.37402
 Alpha  occ. eigenvalues --  -10.27503 -10.24412 -10.22473 -10.21471 -10.21371
 Alpha  occ. eigenvalues --  -10.21166 -10.20940 -10.20535 -10.20342 -10.20341
 Alpha  occ. eigenvalues --  -10.20271 -10.20212 -10.20189 -10.20072 -10.20063
 Alpha  occ. eigenvalues --  -10.20033 -10.19982 -10.19889 -10.19793 -10.19756
 Alpha  occ. eigenvalues --  -10.19750 -10.19483 -10.19370 -10.18901 -10.18763
 Alpha  occ. eigenvalues --  -10.18641 -10.18116 -10.17245 -10.17009  -8.14181
 Alpha  occ. eigenvalues --   -6.10717  -6.10594  -6.10446  -1.11482  -1.00690
 Alpha  occ. eigenvalues --   -0.99910  -0.94673  -0.87488  -0.86603  -0.86039
 Alpha  occ. eigenvalues --   -0.84671  -0.79929  -0.78986  -0.78559  -0.75982
 Alpha  occ. eigenvalues --   -0.75784  -0.75560  -0.75024  -0.73969  -0.72107
 Alpha  occ. eigenvalues --   -0.71574  -0.68564  -0.66677  -0.64934  -0.64729
 Alpha  occ. eigenvalues --   -0.62245  -0.62040  -0.61680  -0.60541  -0.59301
 Alpha  occ. eigenvalues --   -0.57597  -0.57399  -0.55115  -0.54949  -0.53796
 Alpha  occ. eigenvalues --   -0.52429  -0.50380  -0.49476  -0.48450  -0.47971
 Alpha  occ. eigenvalues --   -0.47396  -0.47150  -0.46948  -0.45945  -0.45542
 Alpha  occ. eigenvalues --   -0.44743  -0.44595  -0.44290  -0.43430  -0.43414
 Alpha  occ. eigenvalues --   -0.43099  -0.42930  -0.42870  -0.42581  -0.42336
 Alpha  occ. eigenvalues --   -0.40983  -0.40484  -0.39818  -0.39631  -0.39536
 Alpha  occ. eigenvalues --   -0.38896  -0.38584  -0.38180  -0.37487  -0.37182
 Alpha  occ. eigenvalues --   -0.37091  -0.36771  -0.36400  -0.36029  -0.35908
 Alpha  occ. eigenvalues --   -0.35380  -0.35096  -0.35093  -0.34151  -0.34006
 Alpha  occ. eigenvalues --   -0.33469  -0.33406  -0.32270  -0.31065  -0.30826
 Alpha  occ. eigenvalues --   -0.28855  -0.27611  -0.26586  -0.26237  -0.26001
 Alpha  occ. eigenvalues --   -0.25623  -0.25324  -0.23575  -0.22648  -0.19274
 Alpha virt. eigenvalues --   -0.09773  -0.03434  -0.02175  -0.01719  -0.01319
 Alpha virt. eigenvalues --   -0.00664   0.00617   0.01398   0.03495   0.06739
 Alpha virt. eigenvalues --    0.07635   0.08416   0.08854   0.08937   0.09680
 Alpha virt. eigenvalues --    0.10541   0.10835   0.11523   0.11936   0.12662
 Alpha virt. eigenvalues --    0.13421   0.13700   0.13986   0.14083   0.14266
 Alpha virt. eigenvalues --    0.14710   0.14872   0.15164   0.15622   0.16169
 Alpha virt. eigenvalues --    0.16544   0.16683   0.16854   0.17204   0.17719
 Alpha virt. eigenvalues --    0.18218   0.18510   0.18897   0.19291   0.19588
 Alpha virt. eigenvalues --    0.19834   0.20021   0.21006   0.22069   0.22424
 Alpha virt. eigenvalues --    0.22808   0.23530   0.24316   0.24985   0.25243
 Alpha virt. eigenvalues --    0.25984   0.26413   0.26774   0.28565   0.28744
 Alpha virt. eigenvalues --    0.28855   0.29325   0.29897   0.30078   0.30947
 Alpha virt. eigenvalues --    0.32240   0.32527   0.33061   0.33910   0.34057
 Alpha virt. eigenvalues --    0.34564   0.35254   0.36512   0.37408   0.37860
 Alpha virt. eigenvalues --    0.38335   0.40869   0.42620   0.43235   0.44632
 Alpha virt. eigenvalues --    0.45017   0.46823   0.47507   0.48141   0.49417
 Alpha virt. eigenvalues --    0.50057   0.50412   0.51448   0.51602   0.52209
 Alpha virt. eigenvalues --    0.52402   0.52735   0.53116   0.53287   0.53782
 Alpha virt. eigenvalues --    0.54515   0.54727   0.55024   0.55355   0.55594
 Alpha virt. eigenvalues --    0.56080   0.56342   0.56765   0.57128   0.57683
 Alpha virt. eigenvalues --    0.57863   0.58174   0.58320   0.58600   0.58946
 Alpha virt. eigenvalues --    0.59178   0.59349   0.59820   0.60328   0.60581
 Alpha virt. eigenvalues --    0.60921   0.60975   0.61302   0.61869   0.62193
 Alpha virt. eigenvalues --    0.62682   0.62803   0.63737   0.63887   0.64772
 Alpha virt. eigenvalues --    0.65894   0.66115   0.67062   0.67446   0.68503
 Alpha virt. eigenvalues --    0.69119   0.69380   0.70133   0.71335   0.71968
 Alpha virt. eigenvalues --    0.72835   0.73251   0.74387   0.75081   0.75411
 Alpha virt. eigenvalues --    0.76103   0.76258   0.76826   0.77378   0.77745
 Alpha virt. eigenvalues --    0.78989   0.79410   0.79780   0.80120   0.81001
 Alpha virt. eigenvalues --    0.81143   0.81332   0.81561   0.81980   0.82173
 Alpha virt. eigenvalues --    0.82294   0.82736   0.83140   0.83304   0.83862
 Alpha virt. eigenvalues --    0.84757   0.84871   0.85251   0.85450   0.86046
 Alpha virt. eigenvalues --    0.86731   0.87316   0.87554   0.88031   0.88417
 Alpha virt. eigenvalues --    0.88812   0.89212   0.89747   0.89842   0.90860
 Alpha virt. eigenvalues --    0.91205   0.91559   0.92404   0.92516   0.92796
 Alpha virt. eigenvalues --    0.93298   0.93798   0.94488   0.94695   0.95099
 Alpha virt. eigenvalues --    0.96218   0.96829   0.97849   0.98423   0.99295
 Alpha virt. eigenvalues --    0.99910   1.00358   1.01190   1.01404   1.02253
 Alpha virt. eigenvalues --    1.02856   1.03544   1.04482   1.05107   1.05792
 Alpha virt. eigenvalues --    1.06993   1.07106   1.07931   1.08639   1.09312
 Alpha virt. eigenvalues --    1.10169   1.10744   1.11840   1.12691   1.13931
 Alpha virt. eigenvalues --    1.14354   1.15162   1.15713   1.16363   1.17325
 Alpha virt. eigenvalues --    1.17514   1.17995   1.19341   1.19786   1.20663
 Alpha virt. eigenvalues --    1.21450   1.22022   1.22460   1.23221   1.23947
 Alpha virt. eigenvalues --    1.24819   1.26263   1.26441   1.27157   1.28567
 Alpha virt. eigenvalues --    1.29034   1.29371   1.29919   1.30191   1.30881
 Alpha virt. eigenvalues --    1.32041   1.33413   1.33812   1.34886   1.35379
 Alpha virt. eigenvalues --    1.36142   1.36980   1.37219   1.37505   1.38796
 Alpha virt. eigenvalues --    1.39340   1.39562   1.40085   1.40617   1.41165
 Alpha virt. eigenvalues --    1.41444   1.41651   1.42329   1.42666   1.43808
 Alpha virt. eigenvalues --    1.44413   1.44739   1.45557   1.46031   1.46844
 Alpha virt. eigenvalues --    1.48112   1.48758   1.49660   1.51005   1.53388
 Alpha virt. eigenvalues --    1.56226   1.60531   1.62843   1.63697   1.64977
 Alpha virt. eigenvalues --    1.67067   1.69326   1.69876   1.70463   1.71648
 Alpha virt. eigenvalues --    1.72119   1.72930   1.73336   1.74453   1.75730
 Alpha virt. eigenvalues --    1.75946   1.76301   1.77164   1.77487   1.78380
 Alpha virt. eigenvalues --    1.78816   1.79501   1.80598   1.80648   1.81033
 Alpha virt. eigenvalues --    1.81899   1.82712   1.83206   1.83769   1.84085
 Alpha virt. eigenvalues --    1.84886   1.85476   1.85703   1.86492   1.87297
 Alpha virt. eigenvalues --    1.87736   1.87940   1.88905   1.89583   1.90744
 Alpha virt. eigenvalues --    1.91227   1.91718   1.92254   1.93423   1.93738
 Alpha virt. eigenvalues --    1.94303   1.95055   1.95743   1.96116   1.96929
 Alpha virt. eigenvalues --    1.97713   1.97905   1.98065   1.98418   1.98634
 Alpha virt. eigenvalues --    1.99367   1.99577   1.99822   2.00101   2.00620
 Alpha virt. eigenvalues --    2.00794   2.01957   2.02300   2.02995   2.03339
 Alpha virt. eigenvalues --    2.04143   2.04872   2.05243   2.05383   2.05672
 Alpha virt. eigenvalues --    2.06174   2.06623   2.07303   2.07367   2.08176
 Alpha virt. eigenvalues --    2.08713   2.09557   2.10272   2.10814   2.11117
 Alpha virt. eigenvalues --    2.11391   2.12688   2.13016   2.13372   2.14060
 Alpha virt. eigenvalues --    2.14703   2.15411   2.16770   2.17137   2.17971
 Alpha virt. eigenvalues --    2.19158   2.19839   2.20322   2.21792   2.23107
 Alpha virt. eigenvalues --    2.25290   2.26194   2.26966   2.27631   2.27776
 Alpha virt. eigenvalues --    2.28487   2.29113   2.30157   2.30528   2.31231
 Alpha virt. eigenvalues --    2.31579   2.31839   2.32625   2.33300   2.34853
 Alpha virt. eigenvalues --    2.36407   2.36486   2.37174   2.37565   2.37881
 Alpha virt. eigenvalues --    2.38093   2.39624   2.40145   2.40972   2.41011
 Alpha virt. eigenvalues --    2.41510   2.42212   2.42359   2.42539   2.44106
 Alpha virt. eigenvalues --    2.44352   2.44533   2.44927   2.45518   2.45961
 Alpha virt. eigenvalues --    2.46411   2.46657   2.48253   2.49436   2.50444
 Alpha virt. eigenvalues --    2.50989   2.51396   2.51989   2.52556   2.53276
 Alpha virt. eigenvalues --    2.53734   2.54184   2.54429   2.54891   2.56238
 Alpha virt. eigenvalues --    2.56974   2.57910   2.59012   2.59333   2.59789
 Alpha virt. eigenvalues --    2.59900   2.60697   2.61530   2.61988   2.62323
 Alpha virt. eigenvalues --    2.63170   2.63919   2.64195   2.64917   2.66815
 Alpha virt. eigenvalues --    2.67506   2.68673   2.69619   2.69758   2.70251
 Alpha virt. eigenvalues --    2.70796   2.71732   2.72313   2.73563   2.74384
 Alpha virt. eigenvalues --    2.74869   2.75040   2.76074   2.76909   2.77934
 Alpha virt. eigenvalues --    2.78872   2.79554   2.80745   2.82069   2.82899
 Alpha virt. eigenvalues --    2.83170   2.84338   2.85614   2.86392   2.86694
 Alpha virt. eigenvalues --    2.87548   2.87811   2.88417   2.89791   2.91374
 Alpha virt. eigenvalues --    2.92319   2.93585   2.95730   2.95924   2.96976
 Alpha virt. eigenvalues --    3.04633   3.05361   3.05887   3.06093   3.06774
 Alpha virt. eigenvalues --    3.07515   3.09539   3.11189   3.17370   3.19411
 Alpha virt. eigenvalues --    3.19477   3.19845   3.20356   3.20956   3.22664
 Alpha virt. eigenvalues --    3.23059   3.23719   3.25201   3.25558   3.27133
 Alpha virt. eigenvalues --    3.28010   3.28189   3.32068   3.34349   3.34867
 Alpha virt. eigenvalues --    3.36128   3.38099   3.40998   3.42343   3.42868
 Alpha virt. eigenvalues --    3.44001   3.44703   3.45958   3.46444   3.47433
 Alpha virt. eigenvalues --    3.47780   3.48302   3.50816   3.51255   3.51693
 Alpha virt. eigenvalues --    3.53780   3.68249   3.78733   3.88148   3.89599
 Alpha virt. eigenvalues --    3.90597   4.03011   4.10932   4.12453   4.14035
 Alpha virt. eigenvalues --    4.14359   4.14737   4.16876   4.18402   4.20458
 Alpha virt. eigenvalues --    4.21751   4.22715   4.25274   4.26427   4.28418
 Alpha virt. eigenvalues --    4.31485   4.36854   4.38474   4.39575   4.43774
 Alpha virt. eigenvalues --    4.46405   4.47123   4.48537   4.49787   4.50903
 Alpha virt. eigenvalues --    4.53571   4.57810   4.63069   4.68432   4.72224
 Alpha virt. eigenvalues --    4.80757   4.81203   4.89124   4.90493
  Beta  occ. eigenvalues --  -89.11668 -19.14945 -19.14729 -19.10457 -14.37402
  Beta  occ. eigenvalues --  -10.27503 -10.24412 -10.22473 -10.21471 -10.21371
  Beta  occ. eigenvalues --  -10.21166 -10.20940 -10.20535 -10.20342 -10.20341
  Beta  occ. eigenvalues --  -10.20271 -10.20212 -10.20189 -10.20072 -10.20063
  Beta  occ. eigenvalues --  -10.20033 -10.19982 -10.19889 -10.19793 -10.19756
  Beta  occ. eigenvalues --  -10.19750 -10.19483 -10.19370 -10.18901 -10.18763
  Beta  occ. eigenvalues --  -10.18641 -10.18116 -10.17245 -10.17009  -8.14181
  Beta  occ. eigenvalues --   -6.10717  -6.10594  -6.10446  -1.11482  -1.00690
  Beta  occ. eigenvalues --   -0.99910  -0.94673  -0.87488  -0.86603  -0.86039
  Beta  occ. eigenvalues --   -0.84671  -0.79929  -0.78986  -0.78559  -0.75982
  Beta  occ. eigenvalues --   -0.75784  -0.75560  -0.75024  -0.73969  -0.72107
  Beta  occ. eigenvalues --   -0.71574  -0.68564  -0.66677  -0.64934  -0.64729
  Beta  occ. eigenvalues --   -0.62245  -0.62040  -0.61680  -0.60541  -0.59301
  Beta  occ. eigenvalues --   -0.57597  -0.57399  -0.55115  -0.54949  -0.53796
  Beta  occ. eigenvalues --   -0.52429  -0.50380  -0.49476  -0.48450  -0.47971
  Beta  occ. eigenvalues --   -0.47396  -0.47150  -0.46948  -0.45945  -0.45542
  Beta  occ. eigenvalues --   -0.44743  -0.44595  -0.44290  -0.43430  -0.43414
  Beta  occ. eigenvalues --   -0.43099  -0.42930  -0.42870  -0.42581  -0.42336
  Beta  occ. eigenvalues --   -0.40983  -0.40484  -0.39818  -0.39631  -0.39536
  Beta  occ. eigenvalues --   -0.38896  -0.38584  -0.38180  -0.37487  -0.37182
  Beta  occ. eigenvalues --   -0.37091  -0.36771  -0.36400  -0.36029  -0.35908
  Beta  occ. eigenvalues --   -0.35380  -0.35096  -0.35093  -0.34151  -0.34006
  Beta  occ. eigenvalues --   -0.33469  -0.33406  -0.32270  -0.31065  -0.30826
  Beta  occ. eigenvalues --   -0.28855  -0.27611  -0.26586  -0.26237  -0.26001
  Beta  occ. eigenvalues --   -0.25623  -0.25324  -0.23575  -0.22648  -0.19274
  Beta virt. eigenvalues --   -0.09773  -0.03434  -0.02175  -0.01719  -0.01319
  Beta virt. eigenvalues --   -0.00664   0.00617   0.01398   0.03495   0.06739
  Beta virt. eigenvalues --    0.07635   0.08416   0.08854   0.08937   0.09680
  Beta virt. eigenvalues --    0.10541   0.10835   0.11523   0.11936   0.12662
  Beta virt. eigenvalues --    0.13421   0.13700   0.13986   0.14083   0.14266
  Beta virt. eigenvalues --    0.14710   0.14872   0.15164   0.15622   0.16169
  Beta virt. eigenvalues --    0.16544   0.16683   0.16854   0.17204   0.17719
  Beta virt. eigenvalues --    0.18218   0.18510   0.18897   0.19291   0.19588
  Beta virt. eigenvalues --    0.19834   0.20021   0.21006   0.22069   0.22424
  Beta virt. eigenvalues --    0.22808   0.23530   0.24316   0.24985   0.25243
  Beta virt. eigenvalues --    0.25984   0.26413   0.26774   0.28565   0.28744
  Beta virt. eigenvalues --    0.28855   0.29325   0.29897   0.30078   0.30947
  Beta virt. eigenvalues --    0.32240   0.32527   0.33061   0.33910   0.34057
  Beta virt. eigenvalues --    0.34564   0.35254   0.36512   0.37408   0.37860
  Beta virt. eigenvalues --    0.38335   0.40869   0.42620   0.43235   0.44632
  Beta virt. eigenvalues --    0.45017   0.46823   0.47507   0.48141   0.49417
  Beta virt. eigenvalues --    0.50057   0.50412   0.51448   0.51602   0.52209
  Beta virt. eigenvalues --    0.52402   0.52735   0.53116   0.53287   0.53782
  Beta virt. eigenvalues --    0.54515   0.54727   0.55024   0.55355   0.55594
  Beta virt. eigenvalues --    0.56080   0.56342   0.56765   0.57128   0.57683
  Beta virt. eigenvalues --    0.57863   0.58174   0.58320   0.58600   0.58946
  Beta virt. eigenvalues --    0.59178   0.59349   0.59820   0.60328   0.60581
  Beta virt. eigenvalues --    0.60921   0.60975   0.61302   0.61869   0.62193
  Beta virt. eigenvalues --    0.62682   0.62803   0.63737   0.63887   0.64772
  Beta virt. eigenvalues --    0.65894   0.66115   0.67062   0.67446   0.68503
  Beta virt. eigenvalues --    0.69119   0.69380   0.70133   0.71335   0.71968
  Beta virt. eigenvalues --    0.72835   0.73251   0.74387   0.75081   0.75411
  Beta virt. eigenvalues --    0.76103   0.76258   0.76826   0.77378   0.77745
  Beta virt. eigenvalues --    0.78989   0.79410   0.79780   0.80120   0.81001
  Beta virt. eigenvalues --    0.81143   0.81332   0.81561   0.81980   0.82173
  Beta virt. eigenvalues --    0.82294   0.82736   0.83140   0.83304   0.83862
  Beta virt. eigenvalues --    0.84757   0.84871   0.85251   0.85450   0.86046
  Beta virt. eigenvalues --    0.86731   0.87316   0.87554   0.88031   0.88417
  Beta virt. eigenvalues --    0.88812   0.89212   0.89747   0.89842   0.90860
  Beta virt. eigenvalues --    0.91205   0.91559   0.92404   0.92516   0.92796
  Beta virt. eigenvalues --    0.93298   0.93798   0.94488   0.94695   0.95099
  Beta virt. eigenvalues --    0.96218   0.96829   0.97849   0.98423   0.99295
  Beta virt. eigenvalues --    0.99910   1.00358   1.01190   1.01404   1.02253
  Beta virt. eigenvalues --    1.02856   1.03544   1.04482   1.05107   1.05792
  Beta virt. eigenvalues --    1.06993   1.07106   1.07931   1.08639   1.09312
  Beta virt. eigenvalues --    1.10169   1.10744   1.11840   1.12691   1.13931
  Beta virt. eigenvalues --    1.14354   1.15162   1.15713   1.16363   1.17325
  Beta virt. eigenvalues --    1.17514   1.17995   1.19341   1.19786   1.20663
  Beta virt. eigenvalues --    1.21450   1.22022   1.22460   1.23221   1.23947
  Beta virt. eigenvalues --    1.24819   1.26263   1.26441   1.27157   1.28567
  Beta virt. eigenvalues --    1.29034   1.29371   1.29919   1.30191   1.30881
  Beta virt. eigenvalues --    1.32041   1.33413   1.33812   1.34886   1.35379
  Beta virt. eigenvalues --    1.36142   1.36980   1.37219   1.37505   1.38796
  Beta virt. eigenvalues --    1.39340   1.39562   1.40085   1.40617   1.41165
  Beta virt. eigenvalues --    1.41444   1.41651   1.42329   1.42666   1.43808
  Beta virt. eigenvalues --    1.44413   1.44739   1.45557   1.46031   1.46844
  Beta virt. eigenvalues --    1.48112   1.48758   1.49660   1.51005   1.53388
  Beta virt. eigenvalues --    1.56226   1.60531   1.62843   1.63697   1.64977
  Beta virt. eigenvalues --    1.67067   1.69326   1.69876   1.70463   1.71648
  Beta virt. eigenvalues --    1.72119   1.72930   1.73336   1.74453   1.75730
  Beta virt. eigenvalues --    1.75946   1.76301   1.77164   1.77487   1.78380
  Beta virt. eigenvalues --    1.78816   1.79501   1.80598   1.80648   1.81033
  Beta virt. eigenvalues --    1.81899   1.82712   1.83206   1.83769   1.84085
  Beta virt. eigenvalues --    1.84886   1.85476   1.85703   1.86492   1.87297
  Beta virt. eigenvalues --    1.87736   1.87940   1.88905   1.89583   1.90744
  Beta virt. eigenvalues --    1.91227   1.91718   1.92254   1.93423   1.93738
  Beta virt. eigenvalues --    1.94303   1.95055   1.95743   1.96116   1.96929
  Beta virt. eigenvalues --    1.97713   1.97905   1.98065   1.98418   1.98634
  Beta virt. eigenvalues --    1.99367   1.99577   1.99822   2.00101   2.00620
  Beta virt. eigenvalues --    2.00794   2.01957   2.02300   2.02995   2.03339
  Beta virt. eigenvalues --    2.04143   2.04872   2.05243   2.05383   2.05672
  Beta virt. eigenvalues --    2.06174   2.06623   2.07303   2.07367   2.08176
  Beta virt. eigenvalues --    2.08713   2.09557   2.10272   2.10814   2.11117
  Beta virt. eigenvalues --    2.11391   2.12688   2.13016   2.13372   2.14060
  Beta virt. eigenvalues --    2.14703   2.15411   2.16770   2.17137   2.17971
  Beta virt. eigenvalues --    2.19158   2.19839   2.20322   2.21792   2.23107
  Beta virt. eigenvalues --    2.25290   2.26194   2.26966   2.27631   2.27776
  Beta virt. eigenvalues --    2.28487   2.29113   2.30157   2.30528   2.31231
  Beta virt. eigenvalues --    2.31579   2.31839   2.32625   2.33300   2.34853
  Beta virt. eigenvalues --    2.36407   2.36486   2.37174   2.37565   2.37881
  Beta virt. eigenvalues --    2.38093   2.39624   2.40145   2.40972   2.41011
  Beta virt. eigenvalues --    2.41510   2.42212   2.42359   2.42539   2.44106
  Beta virt. eigenvalues --    2.44352   2.44533   2.44927   2.45518   2.45961
  Beta virt. eigenvalues --    2.46411   2.46657   2.48253   2.49436   2.50444
  Beta virt. eigenvalues --    2.50989   2.51396   2.51989   2.52556   2.53276
  Beta virt. eigenvalues --    2.53734   2.54184   2.54429   2.54891   2.56238
  Beta virt. eigenvalues --    2.56974   2.57910   2.59012   2.59333   2.59789
  Beta virt. eigenvalues --    2.59900   2.60697   2.61530   2.61988   2.62323
  Beta virt. eigenvalues --    2.63170   2.63919   2.64195   2.64917   2.66815
  Beta virt. eigenvalues --    2.67506   2.68673   2.69619   2.69758   2.70251
  Beta virt. eigenvalues --    2.70796   2.71732   2.72313   2.73563   2.74384
  Beta virt. eigenvalues --    2.74869   2.75040   2.76074   2.76909   2.77934
  Beta virt. eigenvalues --    2.78872   2.79554   2.80745   2.82069   2.82899
  Beta virt. eigenvalues --    2.83170   2.84338   2.85614   2.86392   2.86694
  Beta virt. eigenvalues --    2.87548   2.87811   2.88417   2.89791   2.91374
  Beta virt. eigenvalues --    2.92319   2.93585   2.95730   2.95924   2.96976
  Beta virt. eigenvalues --    3.04633   3.05361   3.05887   3.06093   3.06774
  Beta virt. eigenvalues --    3.07515   3.09539   3.11189   3.17370   3.19411
  Beta virt. eigenvalues --    3.19477   3.19845   3.20356   3.20956   3.22664
  Beta virt. eigenvalues --    3.23059   3.23719   3.25201   3.25558   3.27133
  Beta virt. eigenvalues --    3.28010   3.28189   3.32068   3.34349   3.34867
  Beta virt. eigenvalues --    3.36128   3.38099   3.40998   3.42343   3.42868
  Beta virt. eigenvalues --    3.44001   3.44703   3.45958   3.46444   3.47433
  Beta virt. eigenvalues --    3.47780   3.48302   3.50816   3.51255   3.51693
  Beta virt. eigenvalues --    3.53780   3.68249   3.78733   3.88148   3.89599
  Beta virt. eigenvalues --    3.90597   4.03011   4.10932   4.12453   4.14035
  Beta virt. eigenvalues --    4.14359   4.14737   4.16876   4.18402   4.20458
  Beta virt. eigenvalues --    4.21751   4.22715   4.25274   4.26427   4.28418
  Beta virt. eigenvalues --    4.31485   4.36854   4.38474   4.39575   4.43774
  Beta virt. eigenvalues --    4.46405   4.47123   4.48537   4.49787   4.50903
  Beta virt. eigenvalues --    4.53571   4.57810   4.63069   4.68432   4.72224
  Beta virt. eigenvalues --    4.80757   4.81203   4.89124   4.90493
          Condensed to atoms (all electrons):
          Atomic-Atomic Spin Densities.
 Mulliken charges and spin densities:
               1          2
     1  C   -0.103370   0.000001
     2  C   -0.107907  -0.000001
     3  C    0.115726   0.000001
     4  C   -0.118783  -0.000001
     5  C   -0.092817   0.000001
     6  C   -0.077800  -0.000001
     7  H    0.090584  -0.000000
     8  H    0.125211   0.000000
     9  H    0.104876   0.000000
    10  H    0.091528  -0.000000
    11  H    0.090442   0.000000
    12  C    0.127974   0.000001
    13  C   -0.126099  -0.000001
    14  C   -0.129720  -0.000001
    15  C   -0.092782   0.000001
    16  H    0.116325   0.000000
    17  C   -0.094123   0.000001
    18  H    0.099855   0.000000
    19  C   -0.079512  -0.000001
    20  H    0.099219  -0.000000
    21  H    0.092964  -0.000000
    22  H    0.092999   0.000000
    23  S    1.275624   0.000000
    24  O   -0.558341  -0.000000
    25  O   -0.527062  -0.000000
    26  C   -0.191263  -0.000000
    27  C   -0.077355   0.000000
    28  C   -0.055958   0.000000
    29  C   -0.125482  -0.000000
    30  H    0.137873  -0.000000
    31  C   -0.129569  -0.000000
    32  H    0.144503  -0.000000
    33  C    0.128009   0.000000
    34  H    0.089842   0.000000
    35  H    0.110449   0.000000
    36  C   -0.381253  -0.000000
    37  H    0.135538   0.000000
    38  H    0.114373   0.000000
    39  H    0.127304   0.000000
    40  N   -0.679457  -0.000000
    41  H    0.301244   0.000000
    42  C    0.109196  -0.000001
    43  C    0.078931  -0.000000
    44  C   -0.105220  -0.000000
    45  C   -0.019651   0.000000
    46  C    0.081136   0.000000
    47  H    0.089179   0.000000
    48  C    0.370981   0.000000
    49  C   -0.166983   0.000001
    50  H    0.088342  -0.000000
    51  C   -0.376482  -0.000000
    52  H    0.142070   0.000000
    53  H    0.116476   0.000000
    54  H    0.108619   0.000000
    55  C   -0.364707  -0.000000
    56  H    0.126877   0.000000
    57  H    0.129661   0.000000
    58  H    0.094191   0.000000
    59  C   -0.370825  -0.000000
    60  H    0.112495   0.000000
    61  H    0.126069   0.000000
    62  H    0.119537  -0.000000
    63  O   -0.553702   0.000000
 Sum of Mulliken charges =  -0.00000  -0.00000
 Mulliken charges and spin densities with hydrogens summed into heavy atoms:
               1          2
     1  C   -0.012786   0.000000
     2  C    0.017304  -0.000001
     3  C    0.115726   0.000001
     4  C   -0.013907  -0.000001
     5  C   -0.001289   0.000000
     6  C    0.012643  -0.000001
    12  C    0.127974   0.000001
    13  C   -0.009774  -0.000001
    14  C   -0.029865  -0.000001
    15  C    0.006437   0.000001
    17  C   -0.001158   0.000001
    19  C    0.013487  -0.000001
    23  S    1.275624   0.000000
    24  O   -0.558341  -0.000000
    25  O   -0.527062  -0.000000
    26  C   -0.191263  -0.000000
    27  C    0.060517   0.000000
    28  C    0.088545   0.000000
    29  C   -0.035641  -0.000000
    31  C   -0.019120  -0.000000
    33  C    0.128009   0.000000
    36  C   -0.004038  -0.000000
    40  N   -0.378212  -0.000000
    42  C    0.109196  -0.000001
    43  C    0.078931  -0.000000
    44  C   -0.016042  -0.000000
    45  C   -0.019651   0.000000
    46  C    0.081136   0.000000
    48  C    0.370981   0.000000
    49  C   -0.078641   0.000001
    51  C   -0.009317   0.000000
    55  C   -0.013977  -0.000000
    59  C   -0.012724  -0.000000
    63  O   -0.553702   0.000000
 APT charges:
               1
     1  C   -0.063753
     2  C   -0.046536
     3  C   -0.120147
     4  C    0.002746
     5  C   -0.015667
     6  C    0.003054
     7  H    0.021067
     8  H    0.039496
     9  H    0.051306
    10  H    0.008537
    11  H    0.012277
    12  C   -0.142953
    13  C   -0.085183
    14  C   -0.044854
    15  C    0.026876
    16  H    0.069361
    17  C    0.002121
    18  H    0.029320
    19  C   -0.041227
    20  H    0.017279
    21  H    0.011498
    22  H    0.012932
    23  S    2.101853
    24  O   -0.789318
    25  O   -0.736969
    26  C   -0.264026
    27  C   -0.003678
    28  C   -0.024363
    29  C   -0.085928
    30  H    0.080690
    31  C   -0.092676
    32  H    0.080347
    33  C    0.169653
    34  H    0.018175
    35  H    0.049621
    36  C    0.054716
    37  H   -0.029584
    38  H   -0.010591
    39  H   -0.006337
    40  N   -0.840202
    41  H    0.139216
    42  C    0.789291
    43  C    0.148382
    44  C    0.016771
    45  C   -0.151061
    46  C   -0.093674
    47  H    0.023572
    48  C    0.688131
    49  C   -0.201727
    50  H   -0.001037
    51  C    0.034464
    52  H    0.056313
    53  H   -0.037248
    54  H   -0.018692
    55  C    0.047636
    56  H   -0.004569
    57  H   -0.015538
    58  H   -0.020414
    59  C    0.034400
    60  H    0.008982
    61  H   -0.004098
    62  H   -0.012415
    63  O   -0.845616
 Sum of APT charges =   0.00000
 APT charges with hydrogens summed into heavy atoms:
               1
     1  C   -0.042686
     2  C   -0.007041
     3  C   -0.120147
     4  C    0.054052
     5  C   -0.007130
     6  C    0.015332
    12  C   -0.142953
    13  C   -0.015822
    14  C   -0.015535
    15  C    0.044155
    17  C    0.013619
    19  C   -0.028295
    23  S    2.101853
    24  O   -0.789318
    25  O   -0.736969
    26  C   -0.264026
    27  C    0.077012
    28  C    0.055984
    29  C   -0.067753
    31  C   -0.043055
    33  C    0.169653
    36  C    0.008203
    40  N   -0.700986
    42  C    0.789291
    43  C    0.148382
    44  C    0.040342
    45  C   -0.151061
    46  C   -0.093674
    48  C    0.688131
    49  C   -0.202764
    51  C    0.034837
    55  C    0.007114
    59  C    0.026869
    63  O   -0.845616
 Electronic spatial extent (au):  <R**2>=          19040.2338
 Charge=             -0.0000 electrons
 Dipole moment (field-independent basis, Debye):
    X=             -3.5592    Y=             -1.9186    Z=              1.6536  Tot=              4.3684
 Quadrupole moment (field-independent basis, Debye-Ang):
   XX=           -190.2454   YY=           -195.4915   ZZ=           -211.3532
   XY=            -21.9127   XZ=              7.3836   YZ=            -12.6721
 Traceless Quadrupole moment (field-independent basis, Debye-Ang):
   XX=              8.7846   YY=              3.5385   ZZ=            -12.3232
   XY=            -21.9127   XZ=              7.3836   YZ=            -12.6721
 Octapole moment (field-independent basis, Debye-Ang**2):
  XXX=            153.3044  YYY=          -1487.8204  ZZZ=           -204.6115  XYY=            -55.5081
  XXY=           -503.8851  XXZ=            -85.0777  XZZ=             53.4506  YZZ=           -546.6122
  YYZ=           -162.8493  XYZ=             24.8506
 Hexadecapole moment (field-independent basis, Debye-Ang**3):
 XXXX=          -4589.7098 YYYY=         -15642.3781 ZZZZ=          -4373.8821 XXXY=           1002.2563
 XXXZ=           -605.3192 YYYX=            339.3261 YYYZ=           -573.6864 ZZZX=           -696.8467
 ZZZY=            141.5261 XXYY=          -3407.3014 XXZZ=          -1510.3360 YYZZ=          -3565.4074
 XXYZ=             16.1017 YYXZ=           -128.5786 ZZXY=            307.1906
 N-N= 4.006912974152D+03 E-N=-1.221575957220D+04  KE= 1.786287362719D+03
  Exact polarizability:     367.132     -20.438     463.448      59.326      17.199     267.532
 Approx polarizability:     641.544      45.052     877.700      94.881     116.101     482.094
                          Isotropic Fermi Contact Couplings
        Atom                 a.u.       MegaHertz       Gauss      10(-4) cm-1
     1  C(13)              0.00000       0.00005       0.00002       0.00002
     2  C(13)             -0.00000      -0.00005      -0.00002      -0.00002
     3  C(13)              0.00000       0.00006       0.00002       0.00002
     4  C(13)             -0.00000      -0.00006      -0.00002      -0.00002
     5  C(13)              0.00000       0.00005       0.00002       0.00002
     6  C(13)             -0.00000      -0.00006      -0.00002      -0.00002
     7  H(1)              -0.00000      -0.00003      -0.00001      -0.00001
     8  H(1)               0.00000       0.00003       0.00001       0.00001
     9  H(1)               0.00000       0.00003       0.00001       0.00001
    10  H(1)              -0.00000      -0.00003      -0.00001      -0.00001
    11  H(1)               0.00000       0.00003       0.00001       0.00001
    12  C(13)              0.00000       0.00013       0.00005       0.00004
    13  C(13)             -0.00000      -0.00014      -0.00005      -0.00005
    14  C(13)             -0.00000      -0.00014      -0.00005      -0.00005
    15  C(13)              0.00000       0.00014       0.00005       0.00005
    16  H(1)               0.00000       0.00007       0.00003       0.00002
    17  C(13)              0.00000       0.00014       0.00005       0.00005
    18  H(1)               0.00000       0.00008       0.00003       0.00003
    19  C(13)             -0.00000      -0.00015      -0.00005      -0.00005
    20  H(1)              -0.00000      -0.00008      -0.00003      -0.00003
    21  H(1)              -0.00000      -0.00007      -0.00003      -0.00002
    22  H(1)               0.00000       0.00008       0.00003       0.00003
    23  S(33)             -0.00000      -0.00001      -0.00000      -0.00000
    24  O(17)             -0.00000       0.00000       0.00000       0.00000
    25  O(17)             -0.00000       0.00000       0.00000       0.00000
    26  C(13)             -0.00000      -0.00005      -0.00002      -0.00002
    27  C(13)              0.00000       0.00004       0.00002       0.00001
    28  C(13)              0.00000       0.00005       0.00002       0.00002
    29  C(13)             -0.00000      -0.00005      -0.00002      -0.00002
    30  H(1)              -0.00000      -0.00002      -0.00001      -0.00001
    31  C(13)             -0.00000      -0.00005      -0.00002      -0.00002
    32  H(1)              -0.00000      -0.00002      -0.00001      -0.00001
    33  C(13)              0.00000       0.00005       0.00002       0.00002
    34  H(1)               0.00000       0.00002       0.00001       0.00001
    35  H(1)               0.00000       0.00002       0.00001       0.00001
    36  C(13)             -0.00000      -0.00001      -0.00000      -0.00000
    37  H(1)               0.00000       0.00002       0.00001       0.00001
    38  H(1)               0.00000       0.00000       0.00000       0.00000
    39  H(1)               0.00000       0.00001       0.00000       0.00000
    40  N(14)             -0.00000      -0.00001      -0.00000      -0.00000
    41  H(1)               0.00000       0.00001       0.00000       0.00000
    42  C(13)             -0.00000      -0.00010      -0.00004      -0.00003
    43  C(13)              0.00000       0.00000       0.00000       0.00000
    44  C(13)             -0.00000      -0.00002      -0.00001      -0.00001
    45  C(13)              0.00000       0.00000       0.00000       0.00000
    46  C(13)              0.00000       0.00003       0.00001       0.00001
    47  H(1)               0.00000       0.00001       0.00000       0.00000
    48  C(13)              0.00000       0.00001       0.00000       0.00000
    49  C(13)              0.00000       0.00005       0.00002       0.00002
    50  H(1)              -0.00000      -0.00001      -0.00001      -0.00000
    51  C(13)             -0.00000      -0.00000      -0.00000      -0.00000
    52  H(1)               0.00000       0.00000       0.00000       0.00000
    53  H(1)               0.00000       0.00001       0.00000       0.00000
    54  H(1)               0.00000       0.00001       0.00000       0.00000
    55  C(13)             -0.00000      -0.00001      -0.00000      -0.00000
    56  H(1)               0.00000       0.00002       0.00001       0.00001
    57  H(1)               0.00000       0.00003       0.00001       0.00001
    58  H(1)               0.00000       0.00000       0.00000       0.00000
    59  C(13)             -0.00000      -0.00000      -0.00000      -0.00000
    60  H(1)               0.00000       0.00000       0.00000       0.00000
    61  H(1)              -0.00000      -0.00000      -0.00000      -0.00000
    62  H(1)              -0.00000      -0.00000      -0.00000      -0.00000
    63  O(17)              0.00000      -0.00001      -0.00000      -0.00000
 --------------------------------------------------------
       Center         ----  Spin Dipole Couplings  ----
                      3XX-RR        3YY-RR        3ZZ-RR
 --------------------------------------------------------
     1   Atom       -0.000000     -0.000000      0.000000
     2   Atom        0.000000      0.000000     -0.000000
     3   Atom       -0.000000     -0.000000      0.000000
     4   Atom        0.000000      0.000000     -0.000000
     5   Atom       -0.000000     -0.000000      0.000000
     6   Atom        0.000000      0.000000     -0.000000
     7   Atom       -0.000000      0.000000      0.000000
     8   Atom        0.000000     -0.000000      0.000000
     9   Atom        0.000000     -0.000000      0.000000
    10   Atom       -0.000000      0.000000      0.000000
    11   Atom       -0.000000      0.000000     -0.000000
    12   Atom       -0.000000     -0.000000      0.000000
    13   Atom        0.000000      0.000000     -0.000000
    14   Atom        0.000000      0.000000     -0.000000
    15   Atom       -0.000000     -0.000000      0.000000
    16   Atom        0.000000     -0.000000     -0.000000
    17   Atom       -0.000000     -0.000000      0.000000
    18   Atom       -0.000000      0.000000     -0.000000
    19   Atom        0.000000      0.000000     -0.000000
    20   Atom        0.000000     -0.000000      0.000000
    21   Atom       -0.000000      0.000000      0.000000
    22   Atom        0.000000     -0.000000      0.000000
    23   Atom        0.000000      0.000000     -0.000000
    24   Atom        0.000000      0.000000     -0.000000
    25   Atom        0.000000      0.000000     -0.000000
    26   Atom        0.000000      0.000000     -0.000000
    27   Atom       -0.000000     -0.000000      0.000000
    28   Atom       -0.000000     -0.000000      0.000000
    29   Atom        0.000000      0.000000     -0.000000
    30   Atom       -0.000000      0.000000      0.000000
    31   Atom        0.000000      0.000000     -0.000000
    32   Atom        0.000000     -0.000000      0.000000
    33   Atom       -0.000000     -0.000000      0.000000
    34   Atom       -0.000000      0.000000     -0.000000
    35   Atom        0.000000     -0.000000     -0.000000
    36   Atom        0.000000     -0.000000      0.000000
    37   Atom       -0.000000      0.000000     -0.000000
    38   Atom        0.000000     -0.000000      0.000000
    39   Atom       -0.000000      0.000000     -0.000000
    40   Atom       -0.000000     -0.000000      0.000000
    41   Atom       -0.000000      0.000000      0.000000
    42   Atom        0.000000      0.000000     -0.000001
    43   Atom        0.000000      0.000000     -0.000000
    44   Atom        0.000000      0.000000     -0.000000
    45   Atom       -0.000000     -0.000000      0.000000
    46   Atom       -0.000000     -0.000000      0.000000
    47   Atom       -0.000000      0.000000     -0.000000
    48   Atom       -0.000000     -0.000000      0.000000
    49   Atom       -0.000000     -0.000000      0.000001
    50   Atom       -0.000000      0.000000      0.000000
    51   Atom        0.000000     -0.000000      0.000000
    52   Atom        0.000000     -0.000000     -0.000000
    53   Atom        0.000000     -0.000000     -0.000000
    54   Atom        0.000000     -0.000000     -0.000000
    55   Atom        0.000000     -0.000000      0.000000
    56   Atom        0.000000      0.000000     -0.000000
    57   Atom        0.000000     -0.000000     -0.000000
    58   Atom        0.000000     -0.000000     -0.000000
    59   Atom        0.000000     -0.000000     -0.000000
    60   Atom       -0.000000      0.000000     -0.000000
    61   Atom        0.000000      0.000000     -0.000000
    62   Atom        0.000000      0.000000     -0.000000
    63   Atom       -0.000001     -0.000001      0.000001
 --------------------------------------------------------
                        XY            XZ            YZ
 --------------------------------------------------------
     1   Atom        0.000000     -0.000000     -0.000000
     2   Atom       -0.000000      0.000000      0.000000
     3   Atom        0.000000     -0.000000     -0.000000
     4   Atom       -0.000000      0.000000      0.000000
     5   Atom        0.000000     -0.000000     -0.000000
     6   Atom       -0.000000      0.000000      0.000000
     7   Atom       -0.000000     -0.000000     -0.000000
     8   Atom       -0.000000      0.000000     -0.000000
     9   Atom        0.000000     -0.000000      0.000000
    10   Atom        0.000000     -0.000000      0.000000
    11   Atom       -0.000000     -0.000000      0.000000
    12   Atom        0.000000      0.000001      0.000000
    13   Atom       -0.000000     -0.000001     -0.000000
    14   Atom       -0.000000     -0.000001     -0.000001
    15   Atom        0.000000      0.000001      0.000001
    16   Atom       -0.000000      0.000000      0.000000
    17   Atom        0.000000      0.000001      0.000000
    18   Atom       -0.000000      0.000000     -0.000000
    19   Atom       -0.000000     -0.000001     -0.000001
    20   Atom        0.000000     -0.000000      0.000000
    21   Atom        0.000000     -0.000000     -0.000000
    22   Atom        0.000000     -0.000000     -0.000000
    23   Atom       -0.000000      0.000000      0.000000
    24   Atom       -0.000000      0.000000      0.000000
    25   Atom       -0.000000     -0.000000      0.000000
    26   Atom       -0.000000      0.000000      0.000000
    27   Atom        0.000000     -0.000000     -0.000000
    28   Atom        0.000000     -0.000000     -0.000000
    29   Atom       -0.000000      0.000000      0.000000
    30   Atom        0.000000     -0.000000      0.000000
    31   Atom       -0.000000      0.000000      0.000000
    32   Atom       -0.000000      0.000000     -0.000000
    33   Atom        0.000000     -0.000000     -0.000000
    34   Atom        0.000000     -0.000000      0.000000
    35   Atom       -0.000000      0.000000     -0.000000
    36   Atom        0.000000     -0.000000     -0.000000
    37   Atom       -0.000000      0.000000     -0.000000
    38   Atom       -0.000000      0.000000     -0.000000
    39   Atom       -0.000000      0.000000     -0.000000
    40   Atom        0.000000      0.000000     -0.000000
    41   Atom       -0.000000     -0.000000      0.000000
    42   Atom        0.000000      0.000000     -0.000000
    43   Atom        0.000000     -0.000000     -0.000000
    44   Atom       -0.000000     -0.000000     -0.000000
    45   Atom       -0.000000     -0.000000      0.000000
    46   Atom       -0.000000      0.000000      0.000000
    47   Atom       -0.000000      0.000000     -0.000000
    48   Atom        0.000000      0.000000      0.000000
    49   Atom        0.000000      0.000000      0.000000
    50   Atom        0.000000     -0.000000     -0.000000
    51   Atom       -0.000000     -0.000000     -0.000000
    52   Atom       -0.000000     -0.000000     -0.000000
    53   Atom       -0.000000      0.000000     -0.000000
    54   Atom       -0.000000     -0.000000     -0.000000
    55   Atom       -0.000000      0.000000      0.000000
    56   Atom       -0.000000     -0.000000      0.000000
    57   Atom       -0.000000      0.000000     -0.000000
    58   Atom       -0.000000      0.000000     -0.000000
    59   Atom       -0.000000      0.000000     -0.000000
    60   Atom       -0.000000     -0.000000     -0.000000
    61   Atom       -0.000000     -0.000000     -0.000000
    62   Atom       -0.000000     -0.000000     -0.000000
    63   Atom        0.000000      0.000000      0.000001
 --------------------------------------------------------


 ---------------------------------------------------------------------------------
              Anisotropic Spin Dipole Couplings in Principal Axis System
 ---------------------------------------------------------------------------------

       Atom             a.u.   MegaHertz   Gauss  10(-4) cm-1        Axes

              Baa    -0.0000    -0.000    -0.000    -0.000  0.8771  0.3968  0.2707
     1 C(13)  Bbb    -0.0000    -0.000    -0.000    -0.000 -0.3969  0.9161 -0.0566
              Bcc     0.0000     0.000     0.000     0.000 -0.2705 -0.0578  0.9610
 
              Baa    -0.0000    -0.000    -0.000    -0.000 -0.2789 -0.1097  0.9540
     2 C(13)  Bbb     0.0000     0.000     0.000     0.000  0.3250  0.9240  0.2013
              Bcc     0.0000     0.000     0.000     0.000  0.9037 -0.3662  0.2220
 
              Baa    -0.0000    -0.000    -0.000    -0.000  0.4677  0.8626  0.1926
     3 C(13)  Bbb    -0.0000    -0.000    -0.000    -0.000  0.8329 -0.5031  0.2305
              Bcc     0.0000     0.000     0.000     0.000 -0.2958 -0.0526  0.9538
 
              Baa    -0.0000    -0.000    -0.000    -0.000 -0.2684 -0.1749  0.9473
     4 C(13)  Bbb     0.0000     0.000     0.000     0.000 -0.5310  0.8474  0.0060
              Bcc     0.0000     0.000     0.000     0.000  0.8038  0.5014  0.3203
 
              Baa    -0.0000    -0.000    -0.000    -0.000  0.9021 -0.3675  0.2263
     5 C(13)  Bbb    -0.0000    -0.000    -0.000    -0.000  0.3330  0.9262  0.1769
              Bcc     0.0000     0.000     0.000     0.000 -0.2746 -0.0842  0.9579
 
              Baa    -0.0000    -0.000    -0.000    -0.000 -0.2707 -0.0479  0.9615
     6 C(13)  Bbb     0.0000     0.000     0.000     0.000  0.9627 -0.0106  0.2705
              Bcc     0.0000     0.000     0.000     0.000 -0.0027  0.9988  0.0490
 
              Baa    -0.0000    -0.000    -0.000    -0.000  0.8237  0.5099  0.2481
     7 H(1)   Bbb     0.0000     0.000     0.000     0.000 -0.2614 -0.0469  0.9641
              Bcc     0.0000     0.000     0.000     0.000 -0.5032  0.8590 -0.0947
 
              Baa    -0.0000    -0.000    -0.000    -0.000  0.3475  0.9258  0.1490
     8 H(1)   Bbb     0.0000     0.000     0.000     0.000 -0.3874 -0.0030  0.9219
              Bcc     0.0000     0.000     0.000     0.000  0.8539 -0.3781  0.3576
 
              Baa    -0.0000    -0.000    -0.000    -0.000 -0.5473  0.8219 -0.1580
     9 H(1)   Bbb     0.0000     0.000     0.000     0.000 -0.1531  0.0873  0.9844
              Bcc     0.0000     0.000     0.000     0.000  0.8228  0.5630  0.0780
 
              Baa    -0.0000    -0.000    -0.000    -0.000  0.8631 -0.4595  0.2094
    10 H(1)   Bbb     0.0000     0.000     0.000     0.000 -0.2834 -0.0977  0.9540
              Bcc     0.0000     0.000     0.000     0.000  0.4179  0.8828  0.2145
 
              Baa    -0.0000    -0.000    -0.000    -0.000  0.9630  0.0210  0.2686
    11 H(1)   Bbb     0.0000     0.000     0.000     0.000 -0.2671 -0.0567  0.9620
              Bcc     0.0000     0.000     0.000     0.000 -0.0354  0.9982  0.0490
 
              Baa    -0.0000    -0.000    -0.000    -0.000 -0.5930  0.8001 -0.0911
    12 C(13)  Bbb    -0.0000    -0.000    -0.000    -0.000  0.6685  0.4261 -0.6095
              Bcc     0.0000     0.000     0.000     0.000  0.4488  0.4223  0.7875
 
              Baa    -0.0000    -0.000    -0.000    -0.000  0.4798  0.4207  0.7700
    13 C(13)  Bbb     0.0000     0.000     0.000     0.000 -0.4806 -0.6082  0.6318
              Bcc     0.0000     0.000     0.000     0.000  0.7341 -0.6731 -0.0896
 
              Baa    -0.0000    -0.000    -0.000    -0.000  0.4734  0.4241  0.7720
    14 C(13)  Bbb     0.0000     0.000     0.000     0.000  0.8633 -0.0490 -0.5024
              Bcc     0.0000     0.000     0.000     0.000 -0.1753  0.9043 -0.3893
 
              Baa    -0.0000    -0.000    -0.000    -0.000 -0.1881  0.9063 -0.3784
    15 C(13)  Bbb    -0.0000    -0.000    -0.000    -0.000  0.8727 -0.0226 -0.4878
              Bcc     0.0000     0.000     0.000     0.000  0.4507  0.4220  0.7867
 
              Baa    -0.0000    -0.000    -0.000    -0.000  0.3785  0.7150 -0.5877
    16 H(1)   Bbb     0.0000     0.000     0.000     0.000  0.4864  0.3865  0.7836
              Bcc     0.0000     0.000     0.000     0.000  0.7875 -0.5825 -0.2015
 
              Baa    -0.0000    -0.000    -0.000    -0.000  0.8056 -0.5735 -0.1486
    17 C(13)  Bbb    -0.0000    -0.000    -0.000    -0.000  0.3874  0.6997 -0.6003
              Bcc     0.0000     0.000     0.000     0.000  0.4483  0.4260  0.7858
 
              Baa    -0.0000    -0.000    -0.000    -0.000  0.8627 -0.0661 -0.5015
    18 H(1)   Bbb     0.0000     0.000     0.000     0.000  0.4890  0.3626  0.7934
              Bcc     0.0000     0.000     0.000     0.000 -0.1294  0.9296 -0.3451
 
              Baa    -0.0000    -0.000    -0.000    -0.000  0.4437  0.4209  0.7912
    19 C(13)  Bbb     0.0000     0.000     0.000     0.000 -0.5754  0.8106 -0.1085
              Bcc     0.0000     0.000     0.000     0.000  0.6870  0.4071 -0.6018
 
              Baa    -0.0000    -0.000    -0.000    -0.000 -0.1406  0.9005 -0.4116
    20 H(1)   Bbb     0.0000     0.000     0.000     0.000  0.4540  0.4281  0.7814
              Bcc     0.0000     0.000     0.000     0.000  0.8798 -0.0770 -0.4690
 
              Baa    -0.0000    -0.000    -0.000    -0.000  0.8312 -0.5263 -0.1790
    21 H(1)   Bbb     0.0000     0.000     0.000     0.000  0.4403  0.4267  0.7900
              Bcc     0.0000     0.000     0.000     0.000  0.3394  0.7355 -0.5864
 
              Baa    -0.0000    -0.000    -0.000    -0.000 -0.5636  0.8152 -0.1336
    22 H(1)   Bbb     0.0000     0.000     0.000     0.000  0.4385  0.4323  0.7879
              Bcc     0.0000     0.000     0.000     0.000  0.7000  0.3855 -0.6011
 
              Baa    -0.0000    -0.000    -0.000    -0.000 -0.0810 -0.3489  0.9336
    23 S(33)  Bbb     0.0000     0.000     0.000     0.000  0.8441  0.4742  0.2504
              Bcc     0.0000     0.000     0.000     0.000 -0.5301  0.8083  0.2561
 
              Baa    -0.0000     0.000     0.000     0.000 -0.3214 -0.5954  0.7363
    24 O(17)  Bbb     0.0000    -0.000    -0.000    -0.000  0.9468 -0.1883  0.2610
              Bcc     0.0000    -0.000    -0.000    -0.000 -0.0168  0.7810  0.6243
 
              Baa    -0.0000     0.000     0.000     0.000  0.1926 -0.0765  0.9783
    25 O(17)  Bbb     0.0000    -0.000    -0.000    -0.000  0.9751  0.1268 -0.1821
              Bcc     0.0000    -0.000    -0.000    -0.000 -0.1101  0.9890  0.0990
 
              Baa    -0.0000    -0.000    -0.000    -0.000 -0.5116 -0.2255  0.8291
    26 C(13)  Bbb     0.0000     0.000     0.000     0.000 -0.4325  0.9014 -0.0216
              Bcc     0.0000     0.000     0.000     0.000  0.7425  0.3696  0.5587
 
              Baa    -0.0000    -0.000    -0.000    -0.000  0.6992 -0.6799  0.2210
    27 C(13)  Bbb    -0.0000    -0.000    -0.000    -0.000  0.5162  0.6941  0.5017
              Bcc     0.0000     0.000     0.000     0.000 -0.4945 -0.2367  0.8363
 
              Baa    -0.0000    -0.000    -0.000    -0.000 -0.1461  0.9689  0.1999
    28 C(13)  Bbb    -0.0000    -0.000    -0.000    -0.000  0.8609  0.0250  0.5082
              Bcc     0.0000     0.000     0.000     0.000 -0.4873 -0.2464  0.8377
 
              Baa    -0.0000    -0.000    -0.000    -0.000 -0.4893 -0.2552  0.8339
    29 C(13)  Bbb     0.0000     0.000     0.000     0.000  0.8718 -0.1177  0.4755
              Bcc     0.0000     0.000     0.000     0.000 -0.0232  0.9597  0.2801
 
              Baa    -0.0000    -0.000    -0.000    -0.000  0.7220 -0.5806  0.3763
    30 H(1)   Bbb    -0.0000    -0.000    -0.000    -0.000 -0.5693 -0.1897  0.7999
              Bcc     0.0000     0.000     0.000     0.000  0.3931  0.7918  0.4675
 
              Baa    -0.0000    -0.000    -0.000    -0.000 -0.5033 -0.2735  0.8197
    31 C(13)  Bbb     0.0000     0.000     0.000     0.000  0.3294  0.8162  0.4746
              Bcc     0.0000     0.000     0.000     0.000  0.7989 -0.5089  0.3207
 
              Baa    -0.0000    -0.000    -0.000    -0.000 -0.0252  0.9900  0.1385
    32 H(1)   Bbb     0.0000     0.000     0.000     0.000  0.7681  0.1078 -0.6312
              Bcc     0.0000     0.000     0.000     0.000  0.6399 -0.0905  0.7631
 
              Baa    -0.0000    -0.000    -0.000    -0.000  0.6310  0.5552  0.5419
    33 C(13)  Bbb    -0.0000    -0.000    -0.000    -0.000 -0.6002  0.7919 -0.1124
              Bcc     0.0000     0.000     0.000     0.000 -0.4915 -0.2543  0.8329
 
              Baa    -0.0000    -0.000    -0.000    -0.000  0.8776 -0.1044  0.4679
    34 H(1)   Bbb     0.0000     0.000     0.000     0.000 -0.4775 -0.2769  0.8339
              Bcc     0.0000     0.000     0.000     0.000 -0.0425  0.9552  0.2928
 
              Baa    -0.0000    -0.000    -0.000    -0.000  0.3793  0.7797  0.4981
    35 H(1)   Bbb     0.0000     0.000     0.000     0.000 -0.5950 -0.2067  0.7767
              Bcc     0.0000     0.000     0.000     0.000  0.7086 -0.5910  0.3855
 
              Baa    -0.0000    -0.000    -0.000    -0.000 -0.3660  0.9293  0.0487
    36 C(13)  Bbb     0.0000     0.000     0.000     0.000  0.8433  0.3091  0.4397
              Bcc     0.0000     0.000     0.000     0.000 -0.3936 -0.2020  0.8968
 
              Baa    -0.0000    -0.000    -0.000    -0.000  0.8981  0.3615 -0.2505
    37 H(1)   Bbb    -0.0000    -0.000    -0.000    -0.000  0.1701  0.2397  0.9558
              Bcc     0.0000     0.000     0.000     0.000 -0.4055  0.9010 -0.1538
 
              Baa    -0.0000    -0.000    -0.000    -0.000  0.4053  0.8784  0.2531
    38 H(1)   Bbb     0.0000     0.000     0.000     0.000 -0.6444  0.0782  0.7607
              Bcc     0.0000     0.000     0.000     0.000  0.6484 -0.4714  0.5978
 
              Baa    -0.0000    -0.000    -0.000    -0.000  0.1231  0.0912  0.9882
    39 H(1)   Bbb    -0.0000    -0.000    -0.000    -0.000  0.9783  0.1558 -0.1362
              Bcc     0.0000     0.000     0.000     0.000 -0.1664  0.9836 -0.0701
 
              Baa    -0.0000    -0.000    -0.000    -0.000  0.7292 -0.6604 -0.1795
    40 N(14)  Bbb     0.0000     0.000     0.000     0.000  0.6365  0.7508 -0.1763
              Bcc     0.0000     0.000     0.000     0.000  0.2512  0.0143  0.9678
 
              Baa    -0.0000    -0.000    -0.000    -0.000  0.9506  0.1423  0.2759
    41 H(1)   Bbb     0.0000     0.000     0.000     0.000 -0.0631  0.9588 -0.2770
              Bcc     0.0000     0.000     0.000     0.000 -0.3040  0.2459  0.9204
 
              Baa    -0.0000    -0.000    -0.000    -0.000 -0.0755  0.3489  0.9341
    42 C(13)  Bbb     0.0000     0.000     0.000     0.000  0.7957 -0.5436  0.2674
              Bcc     0.0000     0.000     0.000     0.000  0.6010  0.7634 -0.2366
 
              Baa    -0.0000    -0.000    -0.000    -0.000  0.0850  0.2637  0.9609
    43 C(13)  Bbb     0.0000     0.000     0.000     0.000 -0.4147  0.8862 -0.2065
              Bcc     0.0000     0.000     0.000     0.000  0.9060  0.3809 -0.1847
 
              Baa    -0.0000    -0.000    -0.000    -0.000  0.0207  0.2230  0.9746
    44 C(13)  Bbb     0.0000     0.000     0.000     0.000  0.9971  0.0667 -0.0365
              Bcc     0.0000     0.000     0.000     0.000 -0.0731  0.9725 -0.2210
 
              Baa    -0.0000    -0.000    -0.000    -0.000 -0.2245  0.9469 -0.2300
    45 C(13)  Bbb    -0.0000    -0.000    -0.000    -0.000  0.9714  0.2361  0.0238
              Bcc     0.0000     0.000     0.000     0.000 -0.0768  0.2181  0.9729
 
              Baa    -0.0000    -0.000    -0.000    -0.000  0.6511  0.7445 -0.1480
    46 C(13)  Bbb    -0.0000    -0.000    -0.000    -0.000  0.7586 -0.6446  0.0948
              Bcc     0.0000     0.000     0.000     0.000  0.0248  0.1740  0.9844
 
              Baa    -0.0000    -0.000    -0.000    -0.000 -0.0722  0.2195  0.9729
    47 H(1)   Bbb    -0.0000    -0.000    -0.000    -0.000  0.9589  0.2837  0.0072
              Bcc     0.0000     0.000     0.000     0.000 -0.2745  0.9334 -0.2310
 
              Baa    -0.0000    -0.000    -0.000    -0.000  0.9617 -0.2732 -0.0238
    48 C(13)  Bbb    -0.0000    -0.000    -0.000    -0.000  0.2598  0.9356 -0.2390
              Bcc     0.0000     0.000     0.000     0.000  0.0875  0.2236  0.9707
 
              Baa    -0.0000    -0.000    -0.000    -0.000  0.6823  0.7020 -0.2041
    49 C(13)  Bbb    -0.0000    -0.000    -0.000    -0.000  0.7308 -0.6626  0.1641
              Bcc     0.0000     0.000     0.000     0.000  0.0200  0.2611  0.9651
 
              Baa    -0.0000    -0.000    -0.000    -0.000  0.8922 -0.4498 -0.0417
    50 H(1)   Bbb    -0.0000    -0.000    -0.000    -0.000  0.2258  0.3643  0.9035
              Bcc     0.0000     0.000     0.000     0.000  0.3912  0.8155 -0.4266
 
              Baa    -0.0000    -0.000    -0.000    -0.000  0.1899  0.9734  0.1281
    51 C(13)  Bbb     0.0000     0.000     0.000     0.000  0.0734 -0.1442  0.9868
              Bcc     0.0000     0.000     0.000     0.000  0.9791 -0.1780 -0.0988
 
              Baa    -0.0000    -0.000    -0.000    -0.000  0.0507  0.4355  0.8988
    52 H(1)   Bbb    -0.0000    -0.000    -0.000    -0.000  0.0877  0.8945 -0.4384
              Bcc     0.0000     0.000     0.000     0.000  0.9949 -0.1011 -0.0072
 
              Baa    -0.0000    -0.000    -0.000    -0.000 -0.0501  0.8254  0.5624
    53 H(1)   Bbb    -0.0000    -0.000    -0.000    -0.000 -0.4638 -0.5179  0.7188
              Bcc     0.0000     0.000     0.000     0.000  0.8845 -0.2249  0.4088
 
              Baa    -0.0000    -0.000    -0.000    -0.000  0.4520  0.5887  0.6702
    54 H(1)   Bbb    -0.0000    -0.000    -0.000    -0.000 -0.2079 -0.6612  0.7209
              Bcc     0.0000     0.000     0.000     0.000  0.8675 -0.4651 -0.1765
 
              Baa    -0.0000    -0.000    -0.000    -0.000  0.2649  0.9614 -0.0740
    55 C(13)  Bbb     0.0000     0.000     0.000     0.000 -0.1380  0.1138  0.9839
              Bcc     0.0000     0.000     0.000     0.000  0.9543 -0.2504  0.1628
 
              Baa    -0.0000    -0.000    -0.000    -0.000  0.3550  0.2269  0.9069
    56 H(1)   Bbb    -0.0000    -0.000    -0.000    -0.000  0.5588  0.7263 -0.4004
              Bcc     0.0000     0.000     0.000     0.000  0.7495 -0.6489 -0.1310
 
              Baa    -0.0000    -0.000    -0.000    -0.000  0.2462  0.8571  0.4525
    57 H(1)   Bbb    -0.0000    -0.000    -0.000    -0.000 -0.5200 -0.2771  0.8079
              Bcc     0.0000     0.000     0.000     0.000  0.8179 -0.4343  0.3775
 
              Baa    -0.0000    -0.000    -0.000    -0.000  0.1449  0.9474  0.2852
    58 H(1)   Bbb    -0.0000    -0.000    -0.000    -0.000 -0.1190 -0.2695  0.9556
              Bcc     0.0000     0.000     0.000     0.000  0.9823 -0.1725  0.0737
 
              Baa    -0.0000    -0.000    -0.000    -0.000 -0.1589  0.0216  0.9871
    59 C(13)  Bbb    -0.0000    -0.000    -0.000    -0.000  0.4302  0.9014  0.0495
              Bcc     0.0000     0.000     0.000     0.000  0.8887 -0.4325  0.1525
 
              Baa    -0.0000    -0.000    -0.000    -0.000  0.6802  0.4812  0.5529
    60 H(1)   Bbb    -0.0000    -0.000    -0.000    -0.000 -0.5159 -0.2215  0.8275
              Bcc     0.0000     0.000     0.000     0.000 -0.5207  0.8481 -0.0976
 
              Baa    -0.0000    -0.000    -0.000    -0.000  0.2781  0.1259  0.9523
    61 H(1)   Bbb     0.0000     0.000     0.000     0.000  0.7809  0.5477 -0.3004
              Bcc     0.0000     0.000     0.000     0.000 -0.5594  0.8272  0.0540
 
              Baa    -0.0000    -0.000    -0.000    -0.000  0.2651  0.4678  0.8432
    62 H(1)   Bbb     0.0000     0.000     0.000     0.000  0.7437  0.4575 -0.4876
              Bcc     0.0000     0.000     0.000     0.000 -0.6138  0.7563 -0.2266
 
              Baa    -0.0000     0.000     0.000     0.000  0.3132  0.8999 -0.3033
    63 O(17)  Bbb    -0.0000     0.000     0.000     0.000  0.9461 -0.3234  0.0175
              Bcc     0.0000    -0.000    -0.000    -0.000  0.0824  0.2925  0.9527
 

 ---------------------------------------------------------------------------------

 Calling FoFJK, ICntrl=    100127 FMM=F ISym2X=0 I1Cent= 0 IOpClX= 1 NMat=1 NMatS=1 NMatT=0.
 Full mass-weighted force constant matrix:
 Low frequencies --- -138.1125   -2.9713   -0.0007    0.0005    0.0008    2.5719
 Low frequencies ---    3.3956   16.2270   32.7711
 ******    1 imaginary frequencies (negative Signs) ****** 
 Diagonal vibrational polarizability:
      116.0148586      93.1891590     183.1970395
 Harmonic frequencies (cm**-1), IR intensities (KM/Mole), Raman scattering
 activities (A**4/AMU), depolarization ratios for plane and unpolarized
 incident light, reduced masses (AMU), force constants (mDyne/A),
 and normal coordinates:
                      1                      2                      3
                      A                      A                      A
 Frequencies --   -138.1119                16.1610                32.7629
 Red. masses --      7.4964                 5.1263                 3.7185
 Frc consts  --      0.0842                 0.0008                 0.0024
 IR Inten    --     63.8608                 1.2136                 0.4737
  Atom  AN      X      Y      Z        X      Y      Z        X      Y      Z
     1   6    -0.01  -0.01   0.04    -0.04  -0.12  -0.02     0.03   0.05  -0.02
     2   6     0.01  -0.04  -0.04    -0.04  -0.08  -0.02     0.03   0.03  -0.02
     3   6    -0.01  -0.08  -0.13    -0.01  -0.06   0.00     0.01   0.02  -0.01
     4   6    -0.07  -0.07  -0.09     0.01  -0.08   0.03    -0.01   0.02  -0.00
     5   6    -0.08  -0.02  -0.01     0.01  -0.12   0.04    -0.01   0.04  -0.00
     6   6    -0.05   0.01   0.04    -0.01  -0.14   0.01     0.01   0.06  -0.02
     7   1     0.00   0.01   0.10    -0.06  -0.13  -0.04     0.05   0.06  -0.03
     8   1     0.05  -0.07  -0.00    -0.06  -0.06  -0.05     0.05   0.02  -0.03
     9   1    -0.08  -0.08  -0.14     0.03  -0.07   0.05    -0.02   0.02   0.01
    10   1    -0.13   0.00  -0.00     0.03  -0.13   0.06    -0.02   0.05   0.00
    11   1    -0.06   0.05   0.09    -0.01  -0.17   0.01     0.01   0.07  -0.02
    12   6    -0.01  -0.03  -0.08     0.02  -0.00   0.01    -0.01  -0.02   0.00
    13   6     0.05  -0.02   0.01     0.01   0.01   0.00    -0.02  -0.05   0.00
    14   6    -0.03  -0.01  -0.05     0.05   0.00   0.03    -0.03   0.00   0.02
    15   6     0.04  -0.01   0.07     0.04   0.03   0.01    -0.04  -0.07   0.02
    16   1     0.05  -0.04  -0.01    -0.01   0.01  -0.02    -0.00  -0.07  -0.01
    17   6    -0.02   0.01   0.01     0.07   0.02   0.04    -0.05  -0.01   0.04
    18   1    -0.05   0.01  -0.09     0.05  -0.01   0.04    -0.03   0.03   0.02
    19   6     0.01   0.00   0.06     0.07   0.04   0.03    -0.06  -0.04   0.04
    20   1     0.07  -0.01   0.11     0.04   0.05   0.01    -0.04  -0.09   0.02
    21   1    -0.03   0.03   0.02     0.10   0.02   0.06    -0.07   0.01   0.05
    22   1     0.00   0.01   0.10     0.09   0.05   0.04    -0.08  -0.05   0.05
    23  16     0.01   0.04  -0.03    -0.06  -0.01  -0.02     0.03  -0.04  -0.03
    24   8     0.02   0.02   0.03    -0.05  -0.07  -0.06     0.03  -0.05  -0.04
    25   8     0.03   0.05  -0.06    -0.12   0.02  -0.01     0.02  -0.03  -0.03
    26   6     0.01   0.03   0.00     0.01   0.02   0.02     0.04  -0.03  -0.02
    27   6     0.01   0.02  -0.00    -0.03   0.08   0.10     0.04  -0.01  -0.02
    28   6     0.00   0.02   0.02     0.11   0.00  -0.04     0.04  -0.05   0.02
    29   6     0.00   0.02  -0.00     0.03   0.11   0.13     0.03  -0.02   0.04
    30   1     0.02   0.02  -0.01    -0.11   0.09   0.13     0.05   0.00  -0.05
    31   6    -0.01   0.02   0.02     0.17   0.04  -0.00     0.02  -0.06   0.09
    32   1    -0.01   0.02   0.04     0.14  -0.04  -0.10     0.04  -0.07   0.01
    33   6     0.00   0.02   0.01     0.13   0.09   0.08     0.02  -0.05   0.10
    34   1     0.01   0.02  -0.01    -0.00   0.15   0.19     0.03  -0.00   0.05
    35   1    -0.02   0.01   0.03     0.24   0.02  -0.03     0.01  -0.09   0.13
    36   6    -0.00   0.01   0.01     0.19   0.12   0.12    -0.01  -0.06   0.20
    37   1    -0.00   0.01   0.01     0.18   0.10   0.09     0.13   0.10   0.44
    38   1    -0.00   0.01   0.00     0.17   0.17   0.18     0.05  -0.03  -0.04
    39   1    -0.01   0.01   0.01     0.27   0.12   0.11    -0.23  -0.25   0.31
    40   7    -0.05  -0.08  -0.03    -0.03  -0.02  -0.02     0.03  -0.02  -0.03
    41   1    -0.08  -0.10   0.06    -0.04   0.00  -0.03     0.03  -0.02  -0.03
    42   6    -0.03  -0.15  -0.33    -0.01  -0.02  -0.00     0.01  -0.00  -0.01
    43   6     0.00   0.03   0.15    -0.04   0.02  -0.01     0.03   0.06  -0.05
    44   6     0.03   0.00   0.18    -0.04   0.01  -0.06    -0.00  -0.02  -0.01
    45   6     0.00   0.02  -0.02    -0.04   0.02  -0.03    -0.02   0.08  -0.04
    46   6     0.03  -0.01   0.00    -0.04   0.01  -0.07    -0.05   0.00   0.00
    47   1     0.03   0.01   0.19    -0.04   0.01  -0.06     0.01  -0.05   0.00
    48   6     0.01   0.00  -0.00    -0.04   0.01  -0.05    -0.06   0.05  -0.01
    49   6     0.03   0.10   0.49    -0.04   0.01  -0.03     0.04   0.02  -0.02
    50   1     0.04   0.02   0.28    -0.04   0.02  -0.01     0.08   0.01  -0.01
    51   6     0.01  -0.01  -0.13    -0.04   0.02  -0.01    -0.03   0.13  -0.07
    52   1     0.00  -0.01  -0.14    -0.04   0.01  -0.04    -0.08   0.15  -0.03
    53   1     0.08  -0.02  -0.16    -0.06   0.06   0.00     0.01   0.09  -0.09
    54   1    -0.03  -0.01  -0.17    -0.02  -0.00   0.03    -0.03   0.18  -0.13
    55   6     0.00  -0.04  -0.09    -0.04  -0.00  -0.11    -0.09  -0.03   0.02
    56   1    -0.01   0.00  -0.15    -0.05   0.02  -0.13    -0.12  -0.03   0.02
    57   1    -0.02  -0.10  -0.11    -0.03  -0.03  -0.12    -0.11  -0.02   0.02
    58   1     0.01  -0.04  -0.07    -0.04   0.00  -0.12    -0.08  -0.07   0.02
    59   6     0.03   0.02   0.06    -0.04   0.03   0.02     0.08   0.09  -0.09
    60   1     0.05   0.01   0.03    -0.04   0.04   0.06     0.12   0.06  -0.12
    61   1     0.01   0.08   0.03    -0.05  -0.00   0.03     0.08   0.15  -0.10
    62   1     0.06  -0.03   0.06    -0.03   0.06   0.01     0.07   0.08  -0.08
    63   8    -0.00   0.02  -0.04    -0.03   0.01  -0.05    -0.11   0.07   0.01
                      4                      5                      6
                      A                      A                      A
 Frequencies --     35.8572                40.3195                53.9534
 Red. masses --      4.7085                 1.1245                 4.7007
 Frc consts  --      0.0036                 0.0011                 0.0081
 IR Inten    --      0.5862                 0.1102                 0.7167
  Atom  AN      X      Y      Z        X      Y      Z        X      Y      Z
     1   6    -0.01   0.02   0.07     0.01   0.01  -0.00    -0.01   0.03   0.04
     2   6     0.01   0.01   0.01     0.01   0.00   0.00     0.02   0.02  -0.05
     3   6    -0.01  -0.00   0.03     0.00   0.00  -0.00    -0.00   0.02  -0.02
     4   6    -0.04  -0.00   0.11     0.00   0.01  -0.01    -0.05   0.01   0.09
     5   6    -0.06   0.01   0.18     0.00   0.01  -0.01    -0.07   0.02   0.19
     6   6    -0.04   0.02   0.16     0.01   0.01  -0.01    -0.06   0.03   0.17
     7   1     0.01   0.03   0.06     0.01   0.01  -0.00     0.01   0.04   0.02
     8   1     0.04   0.01  -0.05     0.01   0.00   0.01     0.05   0.02  -0.12
     9   1    -0.06  -0.01   0.12     0.00   0.00  -0.01    -0.07   0.00   0.11
    10   1    -0.10   0.01   0.24     0.00   0.01  -0.02    -0.11   0.02   0.28
    11   1    -0.06   0.03   0.21     0.01   0.01  -0.02    -0.08   0.04   0.24
    12   6     0.01  -0.01  -0.03    -0.00  -0.01   0.00     0.01   0.01  -0.03
    13   6    -0.00   0.01  -0.07    -0.00  -0.01   0.00    -0.00   0.01  -0.05
    14   6     0.05  -0.02  -0.03    -0.01  -0.00   0.00     0.02   0.00  -0.03
    15   6     0.01   0.01  -0.11    -0.01  -0.02   0.00     0.00   0.01  -0.07
    16   1    -0.02   0.02  -0.07    -0.00  -0.02   0.00    -0.01   0.01  -0.05
    17   6     0.06  -0.02  -0.07    -0.02  -0.01   0.00     0.03   0.00  -0.05
    18   1     0.07  -0.03   0.00    -0.01   0.00   0.00     0.04   0.00  -0.00
    19   6     0.04  -0.01  -0.11    -0.02  -0.02   0.00     0.01   0.00  -0.07
    20   1    -0.00   0.02  -0.14    -0.01  -0.03   0.00    -0.01   0.01  -0.09
    21   1     0.08  -0.03  -0.07    -0.02  -0.00   0.00     0.04   0.00  -0.04
    22   1     0.05  -0.00  -0.14    -0.02  -0.02   0.00     0.01  -0.00  -0.09
    23  16     0.00  -0.01   0.01     0.01  -0.00   0.00     0.09   0.02  -0.00
    24   8     0.01  -0.02   0.01     0.01  -0.00   0.00     0.09   0.03   0.06
    25   8    -0.00  -0.00   0.01     0.01  -0.00  -0.00     0.13   0.01  -0.04
    26   6     0.02   0.00  -0.01     0.01  -0.00   0.00     0.07   0.00  -0.03
    27   6     0.08   0.03  -0.10    -0.00  -0.00   0.02     0.03  -0.04   0.04
    28   6    -0.01  -0.02   0.05     0.01  -0.00  -0.00     0.07   0.03  -0.07
    29   6     0.11   0.05  -0.14    -0.01  -0.01   0.03    -0.02  -0.07   0.08
    30   1     0.10   0.05  -0.14    -0.01  -0.01   0.03     0.03  -0.06   0.06
    31   6     0.02  -0.00   0.01     0.01  -0.00   0.01     0.03   0.00  -0.03
    32   1    -0.05  -0.04   0.12     0.02  -0.00  -0.01     0.10   0.06  -0.12
    33   6     0.08   0.03  -0.09     0.00  -0.01   0.02    -0.03  -0.05   0.05
    34   1     0.15   0.07  -0.22    -0.01  -0.01   0.04    -0.06  -0.11   0.14
    35   1    -0.00  -0.02   0.05     0.01  -0.00   0.01     0.02   0.02  -0.06
    36   6     0.12   0.05  -0.16    -0.00  -0.01  -0.01    -0.10  -0.09   0.12
    37   1     0.15   0.00  -0.19    -0.34  -0.22  -0.43    -0.20  -0.05   0.09
    38   1     0.12   0.07  -0.17    -0.14  -0.08   0.52    -0.12  -0.14   0.21
    39   1     0.13   0.10  -0.19     0.47   0.27  -0.17    -0.04  -0.10   0.13
    40   7    -0.01   0.00   0.01     0.01  -0.00  -0.00     0.02   0.01  -0.01
    41   1    -0.01  -0.00   0.01     0.01  -0.00   0.00     0.00   0.00   0.02
    42   6     0.00  -0.01  -0.00     0.00  -0.00   0.00     0.00   0.01  -0.03
    43   6     0.00   0.00   0.00     0.01   0.01  -0.01    -0.07  -0.01   0.02
    44   6    -0.03  -0.07   0.03     0.00  -0.01   0.00    -0.05   0.03  -0.07
    45   6    -0.04   0.02   0.03    -0.00   0.01  -0.01    -0.04  -0.02   0.01
    46   6    -0.07  -0.06   0.04    -0.01  -0.00   0.00    -0.03   0.02  -0.09
    47   1    -0.02  -0.11   0.02     0.00  -0.02   0.01    -0.06   0.05  -0.10
    48   6    -0.08  -0.00   0.05    -0.01   0.01  -0.00    -0.02  -0.01  -0.05
    49   6     0.01  -0.04   0.02     0.01  -0.00  -0.00    -0.07   0.01  -0.03
    50   1     0.05  -0.06   0.01     0.02  -0.00   0.00    -0.10   0.02  -0.04
    51   6    -0.05   0.07   0.01    -0.01   0.03  -0.02    -0.04  -0.04   0.06
    52   1    -0.09   0.09   0.05    -0.02   0.03  -0.00    -0.00  -0.07  -0.01
    53   1    -0.03   0.05   0.01     0.00   0.01  -0.02    -0.10   0.04   0.09
    54   1    -0.04   0.11  -0.02    -0.01   0.04  -0.03    -0.02  -0.10   0.15
    55   6    -0.11  -0.09   0.03    -0.02  -0.01   0.00    -0.00   0.03  -0.14
    56   1    -0.17  -0.10   0.08    -0.03  -0.01   0.01     0.02   0.05  -0.18
    57   1    -0.07  -0.05   0.04    -0.02  -0.01   0.01    -0.00  -0.03  -0.15
    58   1    -0.11  -0.14  -0.03    -0.02  -0.02   0.00    -0.01   0.06  -0.12
    59   6     0.05   0.02  -0.04     0.02   0.02  -0.02    -0.11  -0.02   0.07
    60   1     0.08   0.00  -0.05     0.03   0.01  -0.03    -0.14   0.02   0.13
    61   1     0.03   0.06  -0.07     0.02   0.03  -0.02    -0.14  -0.10   0.06
    62   1     0.06   0.02  -0.06     0.02   0.01  -0.02    -0.08   0.01   0.03
    63   8    -0.12   0.02   0.08    -0.02   0.01  -0.00     0.01  -0.03  -0.07
                      7                      8                      9
                      A                      A                      A
 Frequencies --     58.8652                72.0025                78.2323
 Red. masses --      4.4210                 4.0638                 6.0710
 Frc consts  --      0.0090                 0.0124                 0.0219
 IR Inten    --      0.0601                 4.2548                 1.4011
  Atom  AN      X      Y      Z        X      Y      Z        X      Y      Z
     1   6     0.00  -0.05   0.01     0.01   0.11   0.06    -0.02  -0.05   0.02
     2   6    -0.01  -0.03   0.04     0.02   0.06   0.05     0.01  -0.03  -0.06
     3   6     0.01  -0.02   0.03    -0.01   0.04   0.01     0.02  -0.02  -0.05
     4   6     0.04  -0.02  -0.00    -0.04   0.06  -0.03     0.00  -0.04   0.03
     5   6     0.06  -0.04  -0.04    -0.04   0.11  -0.03    -0.02  -0.06   0.12
     6   6     0.03  -0.06  -0.04    -0.02   0.13   0.02    -0.03  -0.07   0.12
     7   1    -0.01  -0.06   0.01     0.04   0.13   0.09    -0.03  -0.06   0.01
     8   1    -0.03  -0.02   0.06     0.04   0.04   0.07     0.01  -0.02  -0.12
     9   1     0.06  -0.01  -0.01    -0.06   0.05  -0.07     0.01  -0.03   0.04
    10   1     0.08  -0.05  -0.07    -0.06   0.13  -0.07    -0.03  -0.07   0.19
    11   1     0.04  -0.07  -0.06    -0.02   0.17   0.02    -0.06  -0.08   0.20
    12   6    -0.01  -0.02   0.03    -0.00  -0.00  -0.01    -0.02  -0.05  -0.01
    13   6    -0.05  -0.06  -0.03     0.05   0.05   0.08    -0.01  -0.11   0.02
    14   6    -0.02  -0.01   0.04    -0.02  -0.04  -0.06    -0.05   0.01   0.06
    15   6    -0.10  -0.11  -0.11     0.09   0.09   0.14    -0.02  -0.10   0.14
    16   1    -0.04  -0.06  -0.03     0.07   0.08   0.12     0.00  -0.16  -0.03
    17   6    -0.07  -0.06  -0.03     0.02  -0.01  -0.02    -0.06   0.02   0.18
    18   1     0.01   0.03   0.09    -0.06  -0.09  -0.13    -0.06   0.05   0.03
    19   6    -0.12  -0.11  -0.12     0.08   0.06   0.09    -0.04  -0.03   0.23
    20   1    -0.14  -0.15  -0.17     0.14   0.14   0.22    -0.01  -0.15   0.17
    21   1    -0.08  -0.05  -0.03    -0.00  -0.03  -0.06    -0.08   0.08   0.24
    22   1    -0.16  -0.15  -0.18     0.11   0.09   0.14    -0.03  -0.01   0.33
    23  16     0.03   0.04   0.08    -0.00  -0.00   0.01     0.03   0.09  -0.03
    24   8     0.02   0.08   0.12    -0.01   0.00   0.01     0.02   0.17   0.01
    25   8     0.07   0.04   0.05    -0.00  -0.01   0.02     0.08   0.12  -0.11
    26   6    -0.00   0.03   0.07    -0.01  -0.00   0.00    -0.02   0.07   0.04
    27   6    -0.05  -0.03   0.14    -0.06  -0.03   0.09     0.00   0.07  -0.00
    28   6     0.04   0.08  -0.05     0.05   0.03  -0.09    -0.05   0.07   0.06
    29   6    -0.05  -0.03   0.09    -0.05  -0.03   0.08    -0.00   0.07  -0.03
    30   1    -0.08  -0.06   0.23    -0.10  -0.05   0.17     0.03   0.07  -0.03
    31   6     0.04   0.08  -0.11     0.06   0.03  -0.11    -0.06   0.07   0.04
    32   1     0.08   0.11  -0.10     0.09   0.04  -0.15    -0.06   0.08   0.08
    33   6     0.00   0.03  -0.04     0.01   0.00  -0.02    -0.03   0.07  -0.01
    34   1    -0.08  -0.07   0.14    -0.09  -0.05   0.15     0.02   0.06  -0.06
    35   1     0.08   0.13  -0.21     0.10   0.06  -0.19    -0.08   0.07   0.05
    36   6     0.01   0.03  -0.11     0.02   0.01  -0.04    -0.03   0.07  -0.05
    37   1     0.18   0.08   0.04     0.09   0.03   0.03     0.00   0.06  -0.04
    38   1     0.07   0.06  -0.34     0.04   0.03  -0.14    -0.02   0.07  -0.09
    39   1    -0.19  -0.03  -0.06    -0.06  -0.03  -0.02    -0.06   0.09  -0.06
    40   7     0.02  -0.00   0.06    -0.00   0.00   0.01     0.05  -0.05  -0.07
    41   1     0.01  -0.00   0.07     0.00   0.00   0.00     0.05  -0.04  -0.06
    42   6     0.01  -0.00   0.06    -0.00   0.00   0.02     0.02  -0.02  -0.04
    43   6     0.03   0.03   0.01     0.02  -0.05  -0.03     0.02  -0.05  -0.11
    44   6     0.01  -0.01   0.02     0.00  -0.10   0.01     0.01  -0.06  -0.11
    45   6     0.00   0.04  -0.02    -0.01  -0.04  -0.02     0.01  -0.04  -0.06
    46   6    -0.01  -0.01  -0.02    -0.03  -0.10  -0.00     0.01  -0.05  -0.05
    47   1     0.02  -0.03   0.04     0.01  -0.12   0.03     0.01  -0.07  -0.12
    48   6    -0.02   0.01  -0.03    -0.04  -0.07  -0.04     0.01  -0.03  -0.02
    49   6     0.03   0.01   0.03     0.03  -0.09  -0.04     0.02  -0.06  -0.15
    50   1     0.05   0.01   0.06     0.05  -0.10  -0.03     0.02  -0.05  -0.13
    51   6    -0.00   0.06  -0.06    -0.02  -0.00  -0.02     0.01  -0.04  -0.03
    52   1    -0.03   0.07  -0.04    -0.05   0.04   0.10     0.01  -0.02   0.00
    53   1     0.04   0.04  -0.07     0.02  -0.13  -0.04     0.00  -0.07  -0.03
    54   1    -0.01   0.09  -0.10    -0.02   0.09  -0.12     0.02  -0.01  -0.05
    55   6    -0.04  -0.04  -0.07    -0.06  -0.12  -0.04     0.00  -0.04   0.01
    56   1    -0.07  -0.01  -0.09    -0.11  -0.11  -0.02    -0.02  -0.08   0.08
    57   1    -0.01  -0.07  -0.08    -0.02  -0.12  -0.03     0.02   0.03   0.04
    58   1    -0.04  -0.05  -0.09    -0.06  -0.15  -0.08     0.00  -0.07  -0.02
    59   6     0.06   0.05  -0.02     0.05  -0.03  -0.03     0.03  -0.05  -0.11
    60   1     0.08   0.04   0.01     0.09  -0.09  -0.18     0.04  -0.06  -0.13
    61   1     0.02   0.04  -0.06     0.16   0.10   0.03     0.04  -0.03  -0.10
    62   1     0.10   0.06  -0.06    -0.07  -0.07   0.06     0.01  -0.05  -0.10
    63   8    -0.04   0.01  -0.06    -0.07  -0.07  -0.07     0.01  -0.02   0.05
                     10                     11                     12
                      A                      A                      A
 Frequencies --     81.9297                87.5949               101.5310
 Red. masses --      3.5985                 3.3914                 1.6227
 Frc consts  --      0.0142                 0.0153                 0.0099
 IR Inten    --      0.8146                 0.1582                 0.3204
  Atom  AN      X      Y      Z        X      Y      Z        X      Y      Z
     1   6     0.07   0.05   0.02    -0.08  -0.07   0.17     0.00  -0.01  -0.06
     2   6     0.07   0.02  -0.00    -0.05  -0.03   0.07    -0.01  -0.01  -0.03
     3   6     0.05   0.01  -0.01     0.00  -0.01  -0.04    -0.02  -0.01   0.02
     4   6     0.03   0.02  -0.01     0.05  -0.02  -0.12    -0.03  -0.01   0.05
     5   6     0.03   0.05   0.01     0.03  -0.06  -0.03    -0.02  -0.01   0.03
     6   6     0.04   0.06   0.02    -0.05  -0.09   0.14    -0.01  -0.01  -0.04
     7   1     0.08   0.06   0.03    -0.14  -0.09   0.28     0.01  -0.00  -0.11
     8   1     0.09   0.01  -0.00    -0.08  -0.02   0.08    -0.01  -0.00  -0.05
     9   1     0.02   0.01  -0.02     0.10   0.01  -0.23    -0.04  -0.02   0.09
    10   1     0.01   0.06   0.01     0.06  -0.06  -0.08    -0.02  -0.02   0.06
    11   1     0.04   0.08   0.03    -0.07  -0.11   0.23     0.00  -0.01  -0.06
    12   6     0.03  -0.02  -0.00    -0.00   0.01  -0.02    -0.01   0.00   0.01
    13   6     0.03  -0.06  -0.01     0.04   0.03   0.07    -0.01   0.02   0.02
    14   6     0.01   0.00   0.01    -0.07  -0.01  -0.09    -0.01  -0.01  -0.00
    15   6    -0.01  -0.09  -0.01     0.01   0.01   0.07    -0.00   0.02   0.00
    16   1     0.04  -0.08  -0.03     0.09   0.05   0.12    -0.01   0.03   0.03
    17   6    -0.03  -0.02   0.01    -0.11  -0.04  -0.10    -0.01  -0.01  -0.02
    18   1     0.01   0.04   0.01    -0.10  -0.02  -0.15    -0.01  -0.02   0.01
    19   6    -0.04  -0.07   0.00    -0.06  -0.03  -0.02    -0.00   0.00  -0.02
    20   1    -0.02  -0.13  -0.02     0.05   0.02   0.14    -0.00   0.03   0.01
    21   1    -0.05  -0.01   0.02    -0.17  -0.07  -0.17    -0.01  -0.02  -0.03
    22   1    -0.07  -0.09   0.00    -0.09  -0.04  -0.03    -0.00  -0.00  -0.03
    23  16    -0.04   0.01  -0.05     0.02  -0.01  -0.03    -0.01   0.00   0.02
    24   8    -0.05   0.01  -0.13     0.02  -0.01  -0.03    -0.01  -0.01   0.03
    25   8    -0.09   0.01  -0.01     0.02  -0.02  -0.02    -0.01   0.00   0.01
    26   6    -0.05   0.01   0.00     0.02  -0.01  -0.02    -0.00   0.01   0.00
    27   6    -0.05   0.01   0.00     0.00  -0.02   0.00     0.01   0.01  -0.02
    28   6    -0.04   0.00  -0.00     0.03  -0.01  -0.03    -0.02   0.00   0.02
    29   6    -0.04   0.02   0.00     0.00  -0.02   0.01     0.01   0.01  -0.02
    30   1    -0.06   0.02   0.01    -0.01  -0.02   0.01     0.02   0.02  -0.04
    31   6    -0.03   0.01  -0.01     0.03  -0.01  -0.03    -0.02   0.00   0.03
    32   1    -0.04   0.00  -0.00     0.03  -0.01  -0.05    -0.03  -0.00   0.04
    33   6    -0.03   0.02  -0.01     0.02  -0.01  -0.01    -0.01   0.00   0.01
    34   1    -0.04   0.02   0.00    -0.01  -0.02   0.03     0.02   0.02  -0.04
    35   1    -0.02   0.01  -0.01     0.04  -0.01  -0.04    -0.04  -0.01   0.05
    36   6    -0.02   0.03  -0.02     0.02  -0.01  -0.01    -0.02  -0.00   0.02
    37   1    -0.00   0.02  -0.01     0.03  -0.01  -0.01    -0.05   0.00   0.01
    38   1    -0.01   0.04  -0.03     0.02  -0.01  -0.02    -0.03  -0.01   0.05
    39   1    -0.02   0.03  -0.02     0.02  -0.01  -0.01    -0.01  -0.00   0.02
    40   7     0.07  -0.02  -0.03     0.00   0.02  -0.03    -0.02   0.00   0.02
    41   1     0.10  -0.05  -0.08    -0.02   0.05  -0.00    -0.03   0.01   0.02
    42   6     0.06  -0.01  -0.03     0.01   0.01  -0.04    -0.02  -0.00   0.02
    43   6     0.03   0.01   0.06     0.00   0.03  -0.02     0.03   0.00  -0.00
    44   6     0.02  -0.03  -0.02     0.01   0.04  -0.02     0.03  -0.00  -0.02
    45   6     0.01   0.02   0.09     0.01   0.04   0.04     0.02   0.01   0.03
    46   6     0.01  -0.03  -0.04     0.01   0.04   0.01     0.02  -0.01  -0.05
    47   1     0.02  -0.05  -0.04     0.01   0.04  -0.02     0.02  -0.00  -0.04
    48   6     0.01  -0.01   0.02     0.01   0.04   0.03     0.03   0.01   0.00
    49   6     0.04  -0.01   0.03     0.00   0.03  -0.04     0.02   0.00   0.00
    50   1     0.04  -0.02   0.01     0.00   0.02  -0.06     0.03   0.00   0.01
    51   6    -0.00   0.07   0.24     0.00   0.05   0.12     0.03   0.00   0.05
    52   1     0.02   0.00   0.05    -0.00   0.11   0.30    -0.00   0.15   0.44
    53   1    -0.17   0.32   0.33    -0.01  -0.14   0.11     0.12  -0.44  -0.02
    54   1     0.13  -0.04   0.50     0.02   0.17  -0.00    -0.03   0.26  -0.30
    55   6    -0.01  -0.07  -0.13     0.02   0.05   0.03     0.01  -0.03  -0.13
    56   1    -0.01   0.00  -0.23    -0.00   0.02   0.08     0.07   0.06  -0.28
    57   1    -0.06  -0.17  -0.16     0.06   0.10   0.05    -0.09  -0.18  -0.18
    58   1    -0.00  -0.06  -0.07     0.01   0.04  -0.02     0.03   0.01   0.00
    59   6     0.02   0.01   0.09    -0.00   0.02  -0.03     0.04   0.00  -0.03
    60   1     0.01   0.03   0.14     0.01  -0.04  -0.24     0.06  -0.06  -0.22
    61   1    -0.00  -0.04   0.07     0.14   0.18   0.05     0.16   0.17   0.04
    62   1     0.05   0.04   0.06    -0.15  -0.07   0.10    -0.10  -0.08   0.10
    63   8     0.01  -0.01   0.01     0.02   0.05   0.05     0.03   0.01   0.02
                     13                     14                     15
                      A                      A                      A
 Frequencies --    107.4263               109.7167               118.9854
 Red. masses --      2.7591                 2.4143                 3.1694
 Frc consts  --      0.0188                 0.0171                 0.0264
 IR Inten    --      0.2603                 2.0625                 0.9067
  Atom  AN      X      Y      Z        X      Y      Z        X      Y      Z
     1   6    -0.08  -0.02  -0.03     0.03   0.02  -0.08    -0.05  -0.01   0.10
     2   6    -0.08  -0.01  -0.01     0.02  -0.01  -0.06    -0.04   0.03   0.06
     3   6    -0.07  -0.01  -0.00    -0.01  -0.02  -0.02     0.00   0.04  -0.02
     4   6    -0.07  -0.01  -0.01    -0.05  -0.02   0.04     0.05   0.03  -0.09
     5   6    -0.06  -0.02  -0.03    -0.05   0.01   0.03     0.05   0.00  -0.07
     6   6    -0.07  -0.03  -0.05    -0.00   0.03  -0.04    -0.00  -0.02   0.03
     7   1    -0.08  -0.03  -0.04     0.06   0.03  -0.13    -0.10  -0.03   0.18
     8   1    -0.09  -0.01  -0.00     0.05  -0.02  -0.06    -0.07   0.03   0.09
     9   1    -0.06  -0.01  -0.00    -0.08  -0.04   0.08     0.10   0.06  -0.14
    10   1    -0.05  -0.02  -0.04    -0.08   0.01   0.07     0.09  -0.00  -0.14
    11   1    -0.06  -0.03  -0.07     0.00   0.05  -0.06    -0.01  -0.05   0.06
    12   6    -0.06   0.00  -0.03    -0.00  -0.03  -0.03    -0.02   0.04  -0.03
    13   6    -0.06   0.03  -0.03    -0.01  -0.04  -0.05    -0.08  -0.03  -0.13
    14   6    -0.03   0.00  -0.01     0.03  -0.01   0.01     0.03   0.10   0.08
    15   6    -0.02   0.06  -0.01     0.00  -0.02  -0.04    -0.07  -0.02  -0.10
    16   1    -0.08   0.03  -0.04    -0.04  -0.05  -0.08    -0.12  -0.08  -0.22
    17   6     0.02   0.04   0.02     0.05   0.01   0.04     0.05   0.12   0.14
    18   1    -0.03  -0.02  -0.01     0.04  -0.01   0.03     0.05   0.14   0.11
    19   6     0.02   0.07   0.03     0.04   0.00   0.01     0.00   0.07   0.05
    20   1    -0.02   0.08  -0.01    -0.01  -0.03  -0.06    -0.12  -0.08  -0.18
    21   1     0.05   0.04   0.05     0.08   0.02   0.07     0.10   0.19   0.25
    22   1     0.06   0.10   0.06     0.05   0.02   0.03     0.02   0.09   0.10
    23  16     0.01  -0.01   0.02    -0.00  -0.01  -0.02     0.01   0.00  -0.02
    24   8     0.02  -0.01   0.09    -0.00   0.00  -0.02     0.02  -0.04  -0.03
    25   8     0.04  -0.01  -0.01     0.00  -0.00  -0.04    -0.01  -0.00   0.01
    26   6     0.02  -0.01  -0.01    -0.01  -0.01   0.00     0.03   0.01  -0.04
    27   6     0.01  -0.01  -0.00    -0.05  -0.04   0.07     0.03  -0.00  -0.03
    28   6     0.02  -0.00  -0.02     0.02   0.00  -0.06     0.04   0.01  -0.05
    29   6     0.01  -0.02   0.01    -0.06  -0.04   0.07     0.02  -0.01  -0.02
    30   1     0.01  -0.02   0.01    -0.08  -0.05   0.13     0.03  -0.00  -0.03
    31   6     0.02  -0.00  -0.02     0.03   0.01  -0.07     0.02   0.01  -0.04
    32   1     0.03   0.00  -0.03     0.05   0.02  -0.10     0.04   0.02  -0.05
    33   6     0.01  -0.01  -0.00    -0.01  -0.01  -0.01     0.01  -0.01  -0.01
    34   1     0.00  -0.02   0.02    -0.09  -0.06   0.13     0.01  -0.02  -0.01
    35   1     0.02   0.00  -0.03     0.07   0.03  -0.14     0.02   0.01  -0.04
    36   6    -0.00  -0.02   0.01     0.01  -0.00  -0.04    -0.02  -0.03   0.03
    37   1    -0.02  -0.01   0.01     0.05  -0.01  -0.02    -0.06   0.00   0.03
    38   1    -0.01  -0.03   0.03     0.02   0.01  -0.08    -0.03  -0.05   0.06
    39   1     0.00  -0.03   0.02    -0.02  -0.00  -0.04    -0.01  -0.04   0.04
    40   7    -0.08   0.01   0.01    -0.00  -0.04  -0.03     0.01   0.04   0.01
    41   1    -0.09   0.02   0.04    -0.01  -0.03  -0.01     0.03  -0.01  -0.02
    42   6    -0.07  -0.01  -0.01    -0.01  -0.04  -0.05    -0.00   0.04  -0.01
    43   6     0.07  -0.00  -0.03    -0.01   0.01   0.01    -0.01  -0.03   0.03
    44   6     0.06  -0.02  -0.00    -0.00   0.02  -0.00    -0.01  -0.03   0.05
    45   6     0.05   0.02   0.02    -0.00   0.02   0.05    -0.01  -0.02   0.05
    46   6     0.04  -0.02  -0.01     0.01   0.03   0.03    -0.01  -0.03   0.03
    47   1     0.06  -0.04  -0.01    -0.01   0.03  -0.02    -0.01  -0.03   0.06
    48   6     0.04   0.01   0.03     0.01   0.03   0.06    -0.01  -0.04   0.02
    49   6     0.07  -0.01  -0.01    -0.01   0.02   0.02    -0.01  -0.03   0.04
    50   1     0.09  -0.02  -0.01    -0.02   0.02  -0.01    -0.00  -0.03   0.02
    51   6     0.04   0.07   0.11    -0.00   0.01   0.08    -0.01  -0.03   0.05
    52   1     0.06  -0.05  -0.23    -0.01   0.10   0.32    -0.03   0.07   0.34
    53   1    -0.14   0.49   0.20     0.04  -0.25   0.05     0.07  -0.36  -0.00
    54   1     0.16  -0.14   0.47    -0.02   0.16  -0.11    -0.06   0.16  -0.21
    55   6     0.02  -0.04  -0.04     0.02   0.05   0.09    -0.02  -0.05  -0.01
    56   1    -0.00  -0.02  -0.06    -0.15  -0.09   0.39    -0.01  -0.01  -0.07
    57   1     0.02  -0.07  -0.05     0.27   0.32   0.19    -0.04  -0.11  -0.03
    58   1     0.02  -0.06  -0.05    -0.03  -0.03  -0.22    -0.01  -0.04   0.02
    59   6     0.09  -0.00  -0.08    -0.01   0.00  -0.03     0.00  -0.04  -0.02
    60   1     0.10   0.02   0.01    -0.00  -0.02  -0.10     0.01  -0.03   0.03
    61   1     0.00  -0.05  -0.14     0.02   0.06  -0.02    -0.05  -0.05  -0.07
    62   1     0.19   0.02  -0.15    -0.04  -0.05   0.01     0.07  -0.04  -0.06
    63   8     0.03   0.02   0.06     0.01   0.04   0.10    -0.02  -0.05  -0.02
                     16                     17                     18
                      A                      A                      A
 Frequencies --    124.0940               137.4477               147.6891
 Red. masses --      2.8028                 3.8505                 1.7582
 Frc consts  --      0.0254                 0.0429                 0.0226
 IR Inten    --      0.9521                 3.9391                 0.3332
  Atom  AN      X      Y      Z        X      Y      Z        X      Y      Z
     1   6     0.00   0.04   0.08     0.01  -0.00   0.01     0.01  -0.02  -0.06
     2   6     0.01   0.01   0.05     0.01   0.01  -0.00     0.01  -0.00  -0.04
     3   6     0.00  -0.01  -0.01     0.02   0.02   0.00     0.01   0.00  -0.00
     4   6    -0.01   0.01  -0.07     0.04   0.02  -0.00     0.01  -0.01   0.05
     5   6    -0.01   0.04  -0.06     0.03  -0.00   0.01     0.01  -0.02   0.05
     6   6    -0.01   0.06   0.02     0.02  -0.01   0.02     0.01  -0.03  -0.01
     7   1     0.01   0.05   0.14    -0.00  -0.01   0.01     0.01  -0.02  -0.10
     8   1     0.02  -0.01   0.07     0.00   0.02  -0.02     0.00   0.00  -0.05
     9   1    -0.01   0.01  -0.11     0.05   0.02  -0.01     0.00  -0.01   0.08
    10   1    -0.02   0.06  -0.11     0.04  -0.01   0.01     0.00  -0.03   0.10
    11   1    -0.02   0.08   0.04     0.01  -0.02   0.03     0.01  -0.04  -0.02
    12   6    -0.00  -0.04  -0.02     0.01   0.03   0.01     0.01   0.02  -0.00
    13   6    -0.01  -0.03  -0.05     0.02   0.02   0.03     0.01   0.01   0.02
    14   6     0.03  -0.03  -0.00    -0.01   0.02  -0.01    -0.01   0.02  -0.01
    15   6     0.02  -0.00  -0.03     0.00   0.01   0.03    -0.00   0.00   0.02
    16   1    -0.04  -0.04  -0.07     0.04   0.03   0.05     0.03   0.01   0.02
    17   6     0.07  -0.00   0.03    -0.04   0.01  -0.02    -0.03   0.01  -0.01
    18   1     0.03  -0.04  -0.00    -0.02   0.03  -0.02    -0.01   0.03  -0.01
    19   6     0.07   0.02   0.02    -0.03  -0.00  -0.00    -0.03  -0.00   0.00
    20   1     0.02   0.00  -0.04     0.01   0.00   0.05     0.00  -0.00   0.03
    21   1     0.10   0.01   0.06    -0.06   0.00  -0.04    -0.05   0.01  -0.02
    22   1     0.10   0.04   0.05    -0.05  -0.02  -0.01    -0.04  -0.01  -0.00
    23  16     0.00  -0.02   0.01    -0.01  -0.00   0.01     0.01   0.01  -0.03
    24   8    -0.00   0.03   0.01    -0.00  -0.07  -0.06     0.01  -0.03  -0.04
    25   8     0.03  -0.03  -0.01    -0.09   0.02   0.07    -0.02   0.01  -0.01
    26   6    -0.04  -0.04   0.06     0.04   0.03  -0.01     0.03   0.02  -0.03
    27   6    -0.04  -0.04   0.08     0.04   0.00   0.00    -0.00  -0.01   0.02
    28   6    -0.04  -0.05   0.07     0.04   0.05  -0.04     0.04   0.03  -0.06
    29   6    -0.03  -0.04   0.06     0.01  -0.02  -0.01    -0.02  -0.01   0.03
    30   1    -0.05  -0.04   0.08     0.04  -0.01   0.02    -0.01  -0.02   0.05
    31   6    -0.02  -0.04   0.06     0.02   0.04  -0.07     0.03   0.03  -0.07
    32   1    -0.04  -0.06   0.07     0.04   0.08  -0.03     0.06   0.05  -0.09
    33   6     0.00  -0.03   0.02    -0.01   0.00  -0.03     0.00   0.00  -0.02
    34   1    -0.02  -0.03   0.05    -0.01  -0.05   0.02    -0.04  -0.04   0.07
    35   1    -0.01  -0.04   0.05     0.01   0.07  -0.09     0.04   0.04  -0.10
    36   6     0.08   0.01  -0.08    -0.09  -0.04   0.02    -0.02  -0.01  -0.01
    37   1     0.17  -0.05  -0.08    -0.15   0.01   0.02    -0.02   0.01  -0.00
    38   1     0.09   0.06  -0.15    -0.09  -0.10   0.05    -0.02  -0.02  -0.02
    39   1     0.04   0.05  -0.10    -0.09  -0.06   0.03    -0.04  -0.02  -0.01
    40   7     0.02  -0.04  -0.01     0.01   0.03   0.02     0.00   0.02  -0.02
    41   1     0.01  -0.03   0.00     0.01   0.05   0.02    -0.00   0.03  -0.01
    42   6     0.00  -0.03  -0.01     0.02   0.03   0.01     0.01   0.02  -0.01
    43   6    -0.04   0.02  -0.03    -0.01  -0.02   0.01    -0.00  -0.01   0.00
    44   6    -0.02   0.05  -0.04    -0.01  -0.01  -0.04    -0.01  -0.01   0.05
    45   6    -0.02   0.01  -0.02     0.00  -0.02  -0.01    -0.01  -0.01   0.01
    46   6    -0.01   0.04  -0.03    -0.00  -0.02  -0.04    -0.01  -0.00   0.08
    47   1    -0.03   0.06  -0.06    -0.01  -0.02  -0.10    -0.01  -0.01   0.06
    48   6    -0.00   0.04   0.03     0.00   0.01   0.10    -0.01  -0.00   0.05
    49   6    -0.04   0.03  -0.04    -0.01  -0.01   0.02    -0.00  -0.01   0.02
    50   1    -0.05   0.04  -0.02    -0.01  -0.00   0.02     0.00  -0.02  -0.01
    51   6    -0.01  -0.02  -0.04     0.02  -0.07  -0.15    -0.01  -0.01  -0.00
    52   1     0.01  -0.02  -0.03     0.03  -0.12  -0.28    -0.01  -0.03  -0.05
    53   1     0.01  -0.03  -0.05     0.09   0.05  -0.17    -0.01   0.04  -0.00
    54   1    -0.04  -0.03  -0.05    -0.06  -0.18  -0.11    -0.01  -0.04   0.03
    55   6    -0.01   0.04  -0.09    -0.01  -0.05  -0.17    -0.01   0.00   0.09
    56   1     0.22   0.20  -0.43    -0.24  -0.10   0.01     0.30   0.17  -0.31
    57   1    -0.29  -0.26  -0.19     0.26   0.06  -0.12    -0.40  -0.33  -0.03
    58   1     0.05   0.16   0.27    -0.07  -0.14  -0.48     0.07   0.15   0.57
    59   6    -0.05  -0.00  -0.06    -0.01  -0.03  -0.02     0.00  -0.02  -0.03
    60   1    -0.06   0.02  -0.00    -0.03   0.01   0.11     0.01  -0.03  -0.05
    61   1    -0.11  -0.05  -0.10    -0.11  -0.13  -0.08    -0.00  -0.00  -0.04
    62   1     0.02   0.00  -0.11     0.10   0.01  -0.11     0.01  -0.04  -0.03
    63   8     0.02   0.06   0.12     0.01   0.06   0.28    -0.02  -0.00   0.05
                     19                     20                     21
                      A                      A                      A
 Frequencies --    158.3454               175.4526               181.4002
 Red. masses --      5.2519                 4.7976                 1.4336
 Frc consts  --      0.0776                 0.0870                 0.0278
 IR Inten    --      1.2641                 0.7262                 0.4585
  Atom  AN      X      Y      Z        X      Y      Z        X      Y      Z
     1   6    -0.02  -0.02  -0.06     0.04   0.02   0.07    -0.01   0.00   0.02
     2   6    -0.03   0.04  -0.05     0.03  -0.03   0.09    -0.01  -0.00   0.02
     3   6     0.01   0.07  -0.00     0.00  -0.05   0.06    -0.01  -0.00   0.01
     4   6     0.04   0.04   0.05    -0.01  -0.03   0.01    -0.01   0.00  -0.01
     5   6     0.04  -0.02   0.06     0.00   0.02  -0.05    -0.01   0.01  -0.02
     6   6     0.01  -0.05  -0.00     0.03   0.04  -0.01    -0.01   0.01  -0.00
     7   1    -0.05  -0.04  -0.11     0.05   0.03   0.10    -0.01   0.01   0.04
     8   1    -0.06   0.06  -0.07     0.05  -0.04   0.12    -0.01  -0.00   0.02
     9   1     0.06   0.05   0.08    -0.03  -0.04  -0.00    -0.01  -0.00  -0.01
    10   1     0.07  -0.05   0.11    -0.01   0.04  -0.11    -0.01   0.01  -0.04
    11   1     0.01  -0.09  -0.01     0.04   0.07  -0.05    -0.01   0.01  -0.01
    12   6    -0.00   0.10   0.02     0.02  -0.05   0.04    -0.01  -0.01   0.01
    13   6    -0.00   0.09   0.02     0.02  -0.04   0.04    -0.02  -0.01  -0.02
    14   6    -0.03   0.12   0.02     0.03  -0.06   0.04     0.02  -0.00   0.03
    15   6    -0.05   0.06  -0.00     0.02  -0.04   0.01    -0.02  -0.02  -0.04
    16   1     0.02   0.09   0.04     0.01  -0.03   0.05    -0.04  -0.02  -0.04
    17   6    -0.08   0.08  -0.02     0.04  -0.07   0.01     0.03   0.01   0.03
    18   1    -0.02   0.14   0.02     0.04  -0.08   0.04     0.02  -0.00   0.04
    19   6    -0.09   0.05  -0.04     0.03  -0.06  -0.00     0.01  -0.00  -0.01
    20   1    -0.05   0.03  -0.00     0.02  -0.03   0.00    -0.04  -0.02  -0.07
    21   1    -0.10   0.08  -0.03     0.04  -0.08   0.00     0.05   0.02   0.06
    22   1    -0.13   0.02  -0.07     0.03  -0.06  -0.02     0.02   0.00  -0.01
    23  16     0.01  -0.01  -0.07    -0.04  -0.00  -0.01     0.00  -0.00  -0.01
    24   8    -0.01   0.15  -0.02    -0.05   0.16   0.11     0.00  -0.00   0.01
    25   8     0.16  -0.11  -0.07     0.10  -0.07  -0.06     0.00   0.01  -0.03
    26   6    -0.10  -0.08  -0.06    -0.09  -0.02  -0.11     0.01   0.00  -0.00
    27   6    -0.13  -0.04   0.01    -0.07   0.05  -0.14     0.01   0.00  -0.00
    28   6    -0.06  -0.14  -0.01    -0.00  -0.03  -0.17     0.01   0.01  -0.01
    29   6    -0.08  -0.01   0.06    -0.00   0.10  -0.13     0.00   0.00  -0.01
    30   1    -0.17  -0.02  -0.00    -0.11   0.08  -0.15     0.01   0.00  -0.00
    31   6    -0.01  -0.11   0.05     0.07   0.01  -0.16     0.01   0.01  -0.02
    32   1    -0.05  -0.20  -0.03     0.00  -0.08  -0.19     0.01   0.01  -0.01
    33   6     0.01  -0.04   0.05     0.03   0.06  -0.08     0.00   0.00  -0.01
    34   1    -0.10   0.05   0.09    -0.01   0.15  -0.12     0.00  -0.00  -0.00
    35   1     0.04  -0.15   0.06     0.12  -0.02  -0.16     0.01   0.01  -0.02
    36   6     0.17   0.05  -0.01    -0.01   0.04   0.19    -0.01  -0.00   0.01
    37   1     0.29  -0.04  -0.01    -0.16   0.16   0.20    -0.03   0.01   0.01
    38   1     0.17   0.19  -0.04    -0.05   0.05   0.36    -0.01  -0.01   0.01
    39   1     0.22   0.07  -0.02     0.15  -0.09   0.25    -0.01  -0.01   0.01
    40   7     0.00   0.08  -0.03    -0.04  -0.03  -0.00    -0.01  -0.01  -0.01
    41   1     0.02   0.05  -0.06    -0.04   0.02  -0.02    -0.00  -0.02  -0.01
    42   6     0.01   0.09  -0.00     0.00  -0.04   0.05    -0.01  -0.01   0.01
    43   6     0.03  -0.02   0.05    -0.01   0.00   0.00     0.01  -0.00  -0.01
    44   6     0.02  -0.05   0.02    -0.01   0.01   0.03     0.01  -0.01  -0.02
    45   6     0.02  -0.03   0.02    -0.01   0.00   0.02     0.01  -0.01  -0.04
    46   6     0.01  -0.05   0.01    -0.01   0.01   0.03     0.00  -0.01  -0.01
    47   1     0.02  -0.07  -0.01    -0.01   0.02   0.03     0.01  -0.02  -0.01
    48   6     0.01  -0.03   0.04    -0.01   0.02   0.04     0.00  -0.00  -0.00
    49   6     0.03  -0.03   0.04    -0.02   0.00   0.00     0.01  -0.01  -0.02
    50   1     0.04  -0.03   0.02    -0.02   0.01   0.02     0.01  -0.01  -0.00
    51   6     0.03  -0.04  -0.06    -0.01  -0.01  -0.00     0.01   0.00  -0.04
    52   1     0.01  -0.04  -0.06    -0.00   0.00   0.03     0.01  -0.04  -0.17
    53   1     0.09  -0.05  -0.08     0.02  -0.05  -0.01    -0.03   0.15  -0.02
    54   1    -0.02  -0.04  -0.10    -0.03   0.01  -0.04     0.03  -0.07   0.07
    55   6    -0.02  -0.08  -0.05     0.00   0.02  -0.01    -0.00  -0.01   0.01
    56   1    -0.13  -0.09   0.01     0.05   0.06  -0.10     0.03  -0.01  -0.01
    57   1     0.07  -0.04  -0.03    -0.04  -0.07  -0.04    -0.04  -0.03   0.01
    58   1    -0.03  -0.14  -0.17     0.01   0.06   0.06     0.01  -0.01   0.06
    59   6     0.03  -0.01   0.10    -0.01  -0.01  -0.03    -0.01   0.03   0.12
    60   1     0.02   0.01   0.14    -0.02   0.03   0.10     0.02  -0.09  -0.30
    61   1     0.03  -0.05   0.12    -0.12  -0.10  -0.10     0.37   0.32   0.38
    62   1     0.02   0.03   0.09     0.11   0.03  -0.12    -0.42  -0.08   0.45
    63   8    -0.00  -0.02   0.08    -0.01   0.02   0.08    -0.00   0.02   0.06
                     22                     23                     24
                      A                      A                      A
 Frequencies --    189.5293               216.0587               248.4483
 Red. masses --      1.9501                 6.4199                 5.6577
 Frc consts  --      0.0413                 0.1766                 0.2058
 IR Inten    --      1.5853                 0.1287                 4.2083
  Atom  AN      X      Y      Z        X      Y      Z        X      Y      Z
     1   6    -0.03   0.00   0.01     0.01   0.00  -0.09     0.10   0.04   0.02
     2   6    -0.03  -0.01   0.00     0.04   0.01  -0.19     0.13  -0.06  -0.10
     3   6    -0.03  -0.01  -0.01     0.04   0.01  -0.16     0.05  -0.10  -0.11
     4   6    -0.03  -0.00  -0.02     0.03   0.01  -0.13     0.00  -0.08  -0.13
     5   6    -0.04   0.01  -0.03    -0.02  -0.01   0.05    -0.03   0.02  -0.03
     6   6    -0.04   0.01  -0.00    -0.04  -0.01   0.10     0.01   0.07   0.10
     7   1    -0.03   0.00   0.03     0.01  -0.00  -0.10     0.15   0.07   0.08
     8   1    -0.03  -0.01   0.00     0.04   0.02  -0.23     0.20  -0.10  -0.10
     9   1    -0.04  -0.01  -0.03     0.03   0.01  -0.17    -0.03  -0.10  -0.15
    10   1    -0.04   0.01  -0.04    -0.05  -0.02   0.15    -0.12   0.06  -0.01
    11   1    -0.04   0.01   0.00    -0.09  -0.03   0.26    -0.03   0.13   0.23
    12   6    -0.01  -0.02   0.01    -0.00  -0.02  -0.13     0.10   0.08   0.07
    13   6    -0.01  -0.00   0.01     0.00  -0.05  -0.12     0.10   0.08   0.09
    14   6    -0.00  -0.02   0.00    -0.04   0.01  -0.11     0.08   0.14   0.12
    15   6     0.00   0.00   0.01     0.01  -0.04  -0.01    -0.01  -0.02  -0.02
    16   1    -0.01   0.01   0.02     0.01  -0.08  -0.15     0.14   0.10   0.13
    17   6     0.00  -0.02  -0.01    -0.03   0.04   0.00    -0.00   0.08   0.06
    18   1    -0.01  -0.04  -0.01    -0.06   0.04  -0.16     0.10   0.20   0.14
    19   6     0.01  -0.01  -0.01     0.01   0.03   0.07    -0.09  -0.03  -0.08
    20   1     0.01   0.02   0.01     0.02  -0.07   0.02    -0.04  -0.09  -0.07
    21   1     0.01  -0.03  -0.02    -0.04   0.08   0.04    -0.02   0.10   0.08
    22   1     0.01  -0.01  -0.02     0.03   0.06   0.18    -0.19  -0.12  -0.21
    23  16     0.00  -0.00  -0.02    -0.03  -0.01   0.13    -0.04  -0.03   0.02
    24   8     0.01  -0.02   0.00    -0.06   0.09   0.03     0.01  -0.18   0.22
    25   8    -0.01   0.04  -0.05    -0.03  -0.16   0.32    -0.02   0.02  -0.05
    26   6     0.02   0.01   0.00    -0.06  -0.03   0.01     0.00   0.01  -0.08
    27   6     0.01   0.00   0.01    -0.04  -0.01  -0.02    -0.04   0.02  -0.02
    28   6     0.01   0.02  -0.00    -0.02  -0.03  -0.03    -0.03   0.00  -0.03
    29   6     0.00  -0.00   0.01     0.00   0.02  -0.05    -0.06   0.01   0.04
    30   1     0.02  -0.00   0.01    -0.07  -0.01   0.00    -0.05   0.03  -0.03
    31   6     0.00   0.01  -0.00     0.03  -0.01  -0.06    -0.05  -0.01   0.02
    32   1     0.02   0.03  -0.01    -0.01  -0.04  -0.04    -0.02   0.00  -0.04
    33   6    -0.00   0.00  -0.00     0.02   0.01  -0.04    -0.05   0.01   0.03
    34   1     0.00  -0.02   0.01     0.01   0.04  -0.05    -0.08   0.01   0.07
    35   1    -0.00   0.02  -0.01     0.06  -0.01  -0.08    -0.05  -0.02   0.04
    36   6    -0.02  -0.00  -0.02     0.02   0.01   0.08     0.02   0.05  -0.03
    37   1    -0.02  -0.00  -0.02    -0.04   0.06   0.09     0.10  -0.01  -0.03
    38   1    -0.01  -0.02  -0.03    -0.00   0.03   0.15     0.03   0.12  -0.07
    39   1    -0.04   0.00  -0.02     0.09  -0.05   0.11     0.02   0.09  -0.04
    40   7    -0.01  -0.02  -0.02     0.05   0.04   0.08    -0.14   0.06   0.02
    41   1    -0.01  -0.02  -0.02     0.02   0.03   0.13    -0.15   0.13   0.03
    42   6    -0.02  -0.01   0.01     0.02  -0.00  -0.08     0.01  -0.02  -0.03
    43   6     0.04   0.02   0.02     0.02   0.01   0.00    -0.00  -0.02  -0.06
    44   6     0.03  -0.03  -0.06     0.02  -0.03  -0.10    -0.00  -0.02  -0.05
    45   6     0.03   0.01  -0.01     0.02   0.01  -0.02    -0.00  -0.02  -0.06
    46   6     0.01  -0.02  -0.02     0.01  -0.01  -0.04     0.00  -0.02  -0.06
    47   1     0.03  -0.05  -0.07     0.02  -0.04  -0.13    -0.00  -0.02  -0.04
    48   6     0.01   0.00  -0.01     0.01   0.01  -0.02     0.00  -0.02  -0.04
    49   6     0.04  -0.02  -0.06     0.03  -0.01  -0.04    -0.01  -0.02  -0.03
    50   1     0.05  -0.01  -0.03     0.03  -0.01  -0.04    -0.01  -0.01  -0.00
    51   6     0.03   0.02  -0.02     0.01   0.03  -0.02    -0.01  -0.02   0.04
    52   1    -0.01   0.10   0.18    -0.01   0.05   0.00     0.01  -0.01   0.07
    53   1     0.10  -0.20  -0.06     0.03   0.01  -0.03    -0.08  -0.04   0.06
    54   1    -0.02   0.16  -0.21     0.02   0.06  -0.05     0.04  -0.00   0.06
    55   6    -0.01  -0.03   0.05     0.01   0.01   0.08     0.01  -0.01   0.04
    56   1     0.06  -0.02   0.00     0.14  -0.00   0.04     0.06  -0.04   0.06
    57   1    -0.12  -0.04   0.04    -0.14   0.01   0.08    -0.06   0.04   0.05
    58   1     0.02  -0.02   0.16     0.05   0.04   0.24     0.02  -0.01   0.09
    59   6     0.02   0.07   0.19     0.01   0.04   0.09     0.02   0.00  -0.04
    60   1    -0.02   0.19   0.61     0.01   0.05   0.11     0.05  -0.01  -0.02
    61   1    -0.17  -0.28   0.11     0.05   0.01   0.12     0.02   0.01  -0.04
    62   1     0.23   0.30  -0.03    -0.02   0.08   0.10     0.02   0.04  -0.05
    63   8    -0.00   0.02   0.04     0.00   0.02   0.01     0.01   0.00   0.03
                     25                     26                     27
                      A                      A                      A
 Frequencies --    263.8382               274.8669               281.4031
 Red. masses --      5.1863                 5.1768                 7.3676
 Frc consts  --      0.2127                 0.2304                 0.3437
 IR Inten    --      1.6340                 4.2120                 2.7311
  Atom  AN      X      Y      Z        X      Y      Z        X      Y      Z
     1   6    -0.05   0.01  -0.05     0.00  -0.00   0.07     0.10   0.01  -0.02
     2   6    -0.01   0.03  -0.17    -0.02  -0.09   0.12     0.09   0.03  -0.02
     3   6    -0.01   0.04  -0.14    -0.03  -0.11   0.05     0.06   0.02   0.00
     4   6     0.00   0.04  -0.15    -0.11  -0.09   0.08     0.11   0.01  -0.01
     5   6    -0.04   0.01  -0.03    -0.09   0.01  -0.04     0.11  -0.01   0.06
     6   6    -0.08  -0.00   0.09    -0.02   0.05  -0.10     0.11  -0.01   0.07
     7   1    -0.07   0.01  -0.02     0.05   0.03   0.10     0.09  -0.00  -0.06
     8   1    -0.02   0.04  -0.18     0.02  -0.12   0.15     0.09   0.03  -0.01
     9   1     0.03   0.05  -0.16    -0.18  -0.13   0.13     0.14   0.03  -0.04
    10   1    -0.04   0.01   0.03    -0.12   0.03  -0.10     0.10  -0.01   0.09
    11   1    -0.13  -0.03   0.26     0.02   0.11  -0.24     0.10  -0.03   0.11
    12   6    -0.05  -0.00   0.20     0.10   0.08  -0.03    -0.04   0.01  -0.05
    13   6    -0.06   0.08   0.18     0.12   0.06   0.02    -0.06   0.02  -0.08
    14   6     0.04  -0.05   0.21     0.05   0.15   0.03    -0.08   0.02  -0.08
    15   6    -0.04   0.08  -0.02     0.02  -0.02  -0.00    -0.03   0.06  -0.01
    16   1    -0.11   0.13   0.22     0.17   0.06   0.05    -0.08   0.00  -0.11
    17   6     0.09  -0.05   0.04    -0.04   0.10   0.03    -0.07   0.04  -0.04
    18   1     0.06  -0.12   0.26     0.07   0.24   0.03    -0.09   0.03  -0.11
    19   6     0.01  -0.02  -0.13    -0.09  -0.01  -0.04    -0.02   0.10   0.04
    20   1    -0.08   0.15  -0.11     0.02  -0.10   0.00    -0.01   0.06   0.03
    21   1     0.16  -0.12   0.00    -0.08   0.14   0.05    -0.07   0.03  -0.05
    22   1    -0.01  -0.06  -0.32    -0.18  -0.08  -0.10     0.02   0.14   0.13
    23  16    -0.01   0.01  -0.00    -0.01   0.05   0.01    -0.11   0.05   0.03
    24   8    -0.04   0.13  -0.12    -0.05   0.19  -0.12    -0.10   0.05   0.20
    25   8    -0.02   0.02   0.00    -0.03  -0.01   0.10    -0.15   0.26  -0.20
    26   6    -0.02  -0.02   0.09     0.02  -0.01   0.08    -0.06  -0.07   0.11
    27   6     0.02  -0.03   0.03     0.05  -0.05   0.04    -0.01  -0.11   0.03
    28   6     0.02  -0.01   0.04     0.06  -0.02   0.05     0.03  -0.10   0.06
    29   6     0.05  -0.02  -0.03     0.09  -0.05  -0.03     0.06  -0.10  -0.07
    30   1     0.03  -0.04   0.05     0.07  -0.07   0.05     0.02  -0.13   0.05
    31   6     0.06   0.00  -0.03     0.08  -0.02   0.01     0.11  -0.08  -0.06
    32   1     0.02  -0.02   0.04     0.06  -0.03   0.03     0.03  -0.16   0.06
    33   6     0.06  -0.02  -0.04     0.08  -0.06  -0.02     0.11  -0.13  -0.07
    34   1     0.06  -0.02  -0.05     0.10  -0.04  -0.05     0.08  -0.06  -0.08
    35   1     0.06   0.02  -0.07     0.06   0.00  -0.01     0.11  -0.05  -0.11
    36   6    -0.02  -0.06   0.02    -0.00  -0.12  -0.00     0.05  -0.18   0.04
    37   1    -0.10  -0.00   0.03    -0.07  -0.07  -0.00    -0.05  -0.09   0.06
    38   1    -0.02  -0.13   0.06     0.00  -0.20   0.01     0.04  -0.24   0.11
    39   1    -0.02  -0.10   0.04    -0.03  -0.13   0.00     0.08  -0.25   0.08
    40   7     0.08  -0.09  -0.02    -0.03   0.02  -0.03    -0.01  -0.03   0.01
    41   1     0.04  -0.04   0.03    -0.11   0.12   0.08     0.09  -0.15  -0.14
    42   6    -0.03  -0.00   0.03     0.01  -0.03  -0.08     0.01   0.01   0.02
    43   6     0.00  -0.01   0.02    -0.01  -0.02  -0.08     0.00  -0.00  -0.00
    44   6    -0.01  -0.01   0.01     0.01  -0.01  -0.02    -0.01  -0.01  -0.00
    45   6    -0.01  -0.01   0.02    -0.01  -0.03  -0.11    -0.00  -0.00  -0.02
    46   6    -0.00  -0.01   0.01    -0.00  -0.02  -0.07    -0.00  -0.02  -0.02
    47   1    -0.01  -0.01  -0.01     0.01   0.00   0.04    -0.01  -0.01   0.01
    48   6    -0.00  -0.02   0.01    -0.00  -0.01  -0.07    -0.01  -0.02  -0.02
    49   6    -0.01  -0.01   0.04    -0.00  -0.00  -0.01     0.00  -0.01   0.01
    50   1    -0.01  -0.00   0.05    -0.00  -0.00  -0.01     0.01  -0.00   0.02
    51   6    -0.01  -0.01   0.00    -0.01  -0.02   0.05    -0.01   0.04  -0.00
    52   1    -0.01  -0.02  -0.02     0.03   0.01   0.14    -0.04   0.05   0.02
    53   1    -0.01   0.02   0.00    -0.13  -0.10   0.09    -0.02   0.03   0.00
    54   1    -0.01  -0.02   0.02     0.07   0.03   0.07     0.02   0.07  -0.01
    55   6     0.02   0.01   0.01    -0.03  -0.02   0.03     0.04   0.02   0.00
    56   1     0.06   0.01  -0.00    -0.00  -0.05   0.07     0.11   0.00  -0.00
    57   1     0.01   0.00   0.01    -0.10   0.04   0.05     0.04   0.03   0.00
    58   1     0.02   0.04   0.03    -0.01  -0.05   0.08     0.03   0.08   0.02
    59   6     0.06   0.01  -0.06    -0.02  -0.01  -0.01    -0.00   0.00   0.02
    60   1     0.11  -0.03  -0.07    -0.03   0.01   0.04    -0.01   0.01   0.04
    61   1     0.04   0.07  -0.09    -0.02  -0.06   0.01    -0.01  -0.03   0.02
    62   1     0.08  -0.00  -0.07    -0.03   0.04  -0.03     0.00   0.02   0.01
    63   8     0.00  -0.03  -0.01     0.00   0.02   0.03    -0.02  -0.00   0.02
                     28                     29                     30
                      A                      A                      A
 Frequencies --    292.8569               301.8550               308.5817
 Red. masses --      2.7953                 4.6484                 5.1272
 Frc consts  --      0.1412                 0.2495                 0.2877
 IR Inten    --      2.2845                 6.6446                 4.4580
  Atom  AN      X      Y      Z        X      Y      Z        X      Y      Z
     1   6    -0.02  -0.00   0.01    -0.06  -0.01  -0.02    -0.16   0.00  -0.04
     2   6    -0.02  -0.00   0.01    -0.04  -0.03  -0.03    -0.15   0.13  -0.02
     3   6    -0.01   0.00   0.01    -0.02  -0.03  -0.03    -0.03   0.17  -0.00
     4   6    -0.01   0.00   0.01    -0.07  -0.01  -0.04     0.01   0.15   0.03
     5   6    -0.01   0.00  -0.01    -0.09   0.01  -0.03     0.02   0.02   0.01
     6   6    -0.01   0.00  -0.02    -0.09   0.01  -0.01    -0.08  -0.05  -0.05
     7   1    -0.02  -0.00   0.01    -0.03   0.01  -0.01    -0.24  -0.04  -0.05
     8   1    -0.02   0.00   0.01    -0.05  -0.03  -0.04    -0.25   0.19  -0.04
     9   1    -0.02   0.00   0.02    -0.10  -0.03  -0.04     0.07   0.19   0.06
    10   1    -0.01   0.00  -0.01    -0.10   0.02  -0.02     0.12  -0.03   0.03
    11   1    -0.01   0.00  -0.04    -0.10   0.03   0.02    -0.06  -0.13  -0.08
    12   6     0.02   0.01  -0.01     0.09   0.02  -0.04     0.07  -0.01  -0.02
    13   6     0.03  -0.00  -0.00     0.11  -0.04  -0.00     0.11  -0.08   0.04
    14   6     0.02   0.02  -0.00     0.07   0.04  -0.02     0.11  -0.01   0.02
    15   6     0.01  -0.02   0.00     0.05  -0.10   0.01     0.08  -0.12   0.04
    16   1     0.04  -0.01  -0.00     0.16  -0.06   0.01     0.17  -0.10   0.04
    17   6    -0.00   0.01   0.00     0.02   0.01   0.02     0.07  -0.05   0.01
    18   1     0.02   0.03  -0.01     0.07   0.07  -0.04     0.13  -0.00   0.05
    19   6    -0.01  -0.01  -0.00     0.00  -0.08   0.02     0.05  -0.15  -0.01
    20   1     0.01  -0.03   0.01     0.05  -0.15   0.01     0.08  -0.13   0.04
    21   1    -0.02   0.02   0.01    -0.03   0.05   0.05     0.03  -0.02   0.03
    22   1    -0.02  -0.02  -0.00    -0.04  -0.11   0.02    -0.01  -0.19  -0.05
    23  16     0.01  -0.00  -0.00    -0.02   0.04   0.00    -0.01   0.05   0.02
    24   8     0.01  -0.01  -0.01    -0.02   0.05   0.02     0.01  -0.02   0.09
    25   8     0.01  -0.01   0.01    -0.06   0.08  -0.02    -0.08   0.10   0.03
    26   6     0.00   0.00  -0.00     0.01   0.00  -0.02     0.00   0.00  -0.07
    27   6     0.00   0.01  -0.00     0.01  -0.03  -0.02    -0.01  -0.03  -0.06
    28   6    -0.01   0.00   0.01     0.02  -0.02  -0.01     0.01  -0.02  -0.05
    29   6    -0.00   0.00   0.01     0.00  -0.04   0.00    -0.05  -0.05  -0.01
    30   1     0.00   0.01  -0.01     0.03  -0.04  -0.02     0.01  -0.04  -0.05
    31   6    -0.01   0.00   0.01     0.01  -0.04   0.02    -0.03  -0.06  -0.00
    32   1    -0.01   0.00   0.02     0.03  -0.04  -0.02     0.01  -0.03  -0.07
    33   6    -0.01   0.00   0.01     0.01  -0.06   0.02    -0.03  -0.07   0.01
    34   1    -0.00   0.00   0.01    -0.00  -0.03   0.01    -0.06  -0.05   0.01
    35   1    -0.01   0.00   0.01    -0.01  -0.03   0.02    -0.05  -0.05   0.00
    36   6    -0.00   0.01  -0.00     0.04  -0.05  -0.00     0.09  -0.01   0.02
    37   1     0.00   0.00  -0.00     0.07  -0.08  -0.01     0.17  -0.07   0.03
    38   1    -0.00   0.01  -0.01     0.04  -0.03  -0.02     0.08   0.12   0.03
    39   1    -0.00   0.01  -0.01     0.04  -0.04  -0.01     0.16  -0.02   0.03
    40   7    -0.00   0.01   0.00    -0.05   0.08   0.01     0.04   0.03   0.02
    41   1     0.01  -0.01  -0.01    -0.04   0.09  -0.01     0.10  -0.07  -0.05
    42   6     0.00   0.00  -0.00     0.01   0.02   0.04     0.02   0.04  -0.05
    43   6    -0.00  -0.04   0.01     0.01   0.03   0.11    -0.01  -0.01  -0.04
    44   6    -0.05  -0.05   0.01    -0.00   0.01  -0.06    -0.00   0.00   0.03
    45   6    -0.02  -0.04  -0.01     0.01   0.06   0.25    -0.01  -0.03  -0.11
    46   6    -0.03  -0.06  -0.01    -0.00   0.05   0.17    -0.00  -0.02  -0.10
    47   1    -0.05  -0.06   0.02    -0.01  -0.03  -0.24     0.00   0.03   0.12
    48   6    -0.05  -0.10   0.01     0.00   0.03   0.17    -0.00  -0.01  -0.09
    49   6    -0.02  -0.04   0.01     0.01  -0.01  -0.12    -0.01   0.01   0.09
    50   1    -0.00  -0.05   0.01    -0.01  -0.01  -0.15    -0.01   0.01   0.09
    51   6    -0.07   0.13  -0.03     0.03  -0.01  -0.09    -0.02  -0.04   0.05
    52   1    -0.22   0.16  -0.00    -0.00  -0.07  -0.28     0.04  -0.02   0.13
    53   1    -0.03   0.16  -0.04     0.30   0.12  -0.19    -0.16  -0.09   0.10
    54   1     0.01   0.23  -0.07    -0.17  -0.13  -0.15     0.06  -0.01   0.10
    55   6     0.24   0.14  -0.06    -0.01   0.01  -0.05    -0.02  -0.01   0.03
    56   1     0.48   0.07  -0.08    -0.12   0.11  -0.13     0.04  -0.06   0.08
    57   1     0.40   0.12  -0.06     0.12  -0.14  -0.10    -0.11   0.09   0.06
    58   1     0.15   0.43  -0.10    -0.03   0.01  -0.15     0.01  -0.03   0.10
    59   6     0.06   0.01   0.01     0.04   0.01   0.01     0.00   0.01  -0.03
    60   1     0.12  -0.01   0.05     0.07  -0.03  -0.10     0.02   0.01  -0.00
    61   1     0.05   0.04  -0.00     0.05   0.12  -0.02    -0.00   0.00  -0.03
    62   1     0.06   0.07  -0.01     0.03  -0.06   0.04     0.01   0.03  -0.04
    63   8    -0.10  -0.06   0.05     0.01  -0.06  -0.10     0.01   0.03   0.06
                     31                     32                     33
                      A                      A                      A
 Frequencies --    322.9603               327.9571               336.7930
 Red. masses --      4.9029                 2.7766                 3.4757
 Frc consts  --      0.3013                 0.1760                 0.2323
 IR Inten    --      1.6696                 0.7289                 4.7027
  Atom  AN      X      Y      Z        X      Y      Z        X      Y      Z
     1   6    -0.07  -0.00  -0.02     0.02  -0.00   0.03     0.01   0.00  -0.06
     2   6    -0.07   0.04  -0.00     0.02  -0.01   0.02     0.00   0.01  -0.04
     3   6    -0.01   0.06  -0.00     0.00  -0.02   0.02     0.00   0.01  -0.02
     4   6    -0.01   0.06   0.01     0.00  -0.02   0.03     0.02   0.02  -0.06
     5   6    -0.01   0.01   0.01     0.01  -0.00  -0.01     0.00  -0.00   0.02
     6   6    -0.05  -0.01  -0.03     0.02   0.00  -0.01    -0.01  -0.01   0.04
     7   1    -0.09  -0.01  -0.03     0.02   0.00   0.04     0.01   0.00  -0.09
     8   1    -0.12   0.07   0.01     0.03  -0.02   0.01    -0.01   0.02  -0.02
     9   1     0.01   0.07   0.02    -0.01  -0.02   0.03     0.04   0.03  -0.09
    10   1     0.03  -0.01   0.04     0.01   0.00  -0.03    -0.01  -0.01   0.07
    11   1    -0.04  -0.05  -0.05     0.03   0.01  -0.03    -0.03  -0.02   0.10
    12   6     0.08   0.04  -0.06    -0.02  -0.01  -0.00     0.02  -0.01  -0.02
    13   6     0.11   0.00  -0.02    -0.03   0.00  -0.02     0.02  -0.04  -0.02
    14   6     0.05   0.09  -0.03    -0.03  -0.01  -0.01     0.01  -0.02  -0.03
    15   6     0.05  -0.04   0.01    -0.01   0.02  -0.00     0.01  -0.05   0.00
    16   1     0.16  -0.03  -0.03    -0.05  -0.00  -0.03     0.03  -0.04  -0.02
    17   6    -0.01   0.06  -0.01    -0.02  -0.01  -0.02     0.01  -0.02  -0.00
    18   1     0.06   0.15  -0.03    -0.03  -0.02  -0.02     0.00  -0.02  -0.05
    19   6    -0.03  -0.03  -0.01    -0.00   0.03   0.01     0.02  -0.03   0.03
    20   1     0.06  -0.09   0.04    -0.01   0.03   0.01     0.01  -0.06   0.00
    21   1    -0.06   0.09   0.01    -0.01  -0.02  -0.03    -0.01  -0.01   0.00
    22   1    -0.09  -0.07  -0.01     0.02   0.04   0.03     0.03  -0.02   0.06
    23  16    -0.01  -0.08   0.00     0.01   0.01  -0.00    -0.04  -0.02  -0.01
    24   8     0.00  -0.13   0.03     0.01   0.01  -0.01    -0.05   0.05   0.02
    25   8     0.10  -0.07  -0.12    -0.01   0.01   0.02     0.02  -0.06  -0.02
    26   6    -0.10  -0.06   0.20     0.01   0.01  -0.03     0.01   0.01  -0.01
    27   6    -0.06   0.01   0.13     0.01  -0.00  -0.02     0.02   0.03   0.00
    28   6    -0.09  -0.03   0.14     0.01   0.01  -0.02     0.04  -0.01   0.00
    29   6     0.06   0.08  -0.04    -0.01  -0.01   0.00     0.05   0.03   0.05
    30   1    -0.11   0.02   0.16     0.01  -0.00  -0.02    -0.00   0.05  -0.01
    31   6     0.06   0.07  -0.09    -0.01  -0.01   0.01     0.05   0.01   0.06
    32   1    -0.13  -0.03   0.22     0.01   0.01  -0.03     0.05  -0.04  -0.03
    33   6     0.08   0.11  -0.12    -0.02  -0.02   0.01     0.04   0.02   0.06
    34   1     0.07   0.07  -0.07    -0.02  -0.01   0.01     0.05   0.06   0.05
    35   1     0.12   0.07  -0.14    -0.02  -0.01   0.01     0.07  -0.01   0.08
    36   6    -0.12   0.03   0.03     0.02   0.00   0.00    -0.08  -0.05  -0.07
    37   1    -0.34   0.21   0.07     0.05  -0.02  -0.00    -0.10  -0.06  -0.10
    38   1    -0.13  -0.15   0.14     0.02   0.04  -0.01    -0.04  -0.20  -0.15
    39   1    -0.13  -0.09   0.09     0.03   0.01  -0.00    -0.22   0.05  -0.11
    40   7     0.04  -0.02   0.00     0.00  -0.01   0.00    -0.06   0.04  -0.00
    41   1     0.13  -0.16  -0.10     0.00  -0.01   0.01    -0.07   0.09  -0.02
    42   6     0.02   0.01  -0.02    -0.00  -0.01  -0.00    -0.01   0.02   0.04
    43   6    -0.01   0.01   0.03    -0.05   0.00   0.06    -0.01  -0.00  -0.13
    44   6    -0.01   0.00  -0.03    -0.03  -0.02  -0.07    -0.01   0.03   0.20
    45   6    -0.02   0.00   0.03    -0.08  -0.01   0.04     0.00  -0.02  -0.13
    46   6    -0.01   0.01  -0.02    -0.03  -0.01  -0.07     0.00   0.03   0.16
    47   1    -0.01  -0.00  -0.05    -0.03  -0.01  -0.10    -0.01   0.06   0.28
    48   6    -0.00   0.00   0.00    -0.02  -0.00  -0.01    -0.00   0.01   0.00
    49   6    -0.01  -0.00   0.01    -0.04  -0.03   0.02    -0.02  -0.01  -0.05
    50   1    -0.02   0.00   0.00    -0.06  -0.03   0.02     0.03  -0.02  -0.02
    51   6    -0.01  -0.05   0.00    -0.05  -0.19   0.03     0.02  -0.11   0.05
    52   1     0.03  -0.07  -0.03     0.11  -0.23  -0.04     0.15  -0.10   0.13
    53   1     0.01  -0.04  -0.00    -0.06  -0.17   0.04    -0.14  -0.19   0.11
    54   1    -0.05  -0.10   0.02    -0.13  -0.32   0.09     0.06  -0.11   0.11
    55   6    -0.03   0.00   0.02     0.01   0.04   0.02     0.03   0.00  -0.07
    56   1    -0.01  -0.00   0.02     0.09  -0.01   0.05    -0.09   0.10  -0.14
    57   1    -0.07   0.02   0.02    -0.04   0.10   0.04     0.22  -0.15  -0.12
    58   1    -0.01  -0.01   0.05     0.01   0.08   0.07    -0.02   0.03  -0.23
    59   6     0.05   0.05  -0.02     0.19   0.19  -0.02     0.03   0.10   0.03
    60   1     0.12   0.01  -0.03     0.44   0.06   0.00     0.07   0.11   0.16
    61   1     0.04   0.12  -0.04     0.18   0.39  -0.09     0.08   0.01   0.10
    62   1     0.06   0.06  -0.03     0.20   0.32  -0.07    -0.03   0.27   0.01
    63   8     0.02  -0.01  -0.02     0.03  -0.01   0.01    -0.05   0.03  -0.00
                     34                     35                     36
                      A                      A                      A
 Frequencies --    343.7407               371.2080               391.7344
 Red. masses --      3.6090                 4.3823                 6.0962
 Frc consts  --      0.2512                 0.3558                 0.5512
 IR Inten    --      7.1209                 7.3771                10.0507
  Atom  AN      X      Y      Z        X      Y      Z        X      Y      Z
     1   6     0.01  -0.01  -0.01     0.01  -0.00  -0.03     0.04   0.01  -0.06
     2   6     0.01  -0.05   0.01     0.01  -0.02  -0.00     0.02  -0.03  -0.02
     3   6    -0.00  -0.05  -0.02    -0.00  -0.01   0.00    -0.01  -0.04   0.05
     4   6    -0.03  -0.04  -0.02     0.00  -0.01  -0.03     0.01  -0.02  -0.08
     5   6    -0.05  -0.01   0.01    -0.01  -0.00   0.01    -0.01   0.01  -0.01
     6   6    -0.02   0.01  -0.01    -0.01   0.00   0.01    -0.02   0.02   0.07
     7   1     0.04   0.01  -0.01     0.03   0.01  -0.04     0.08   0.03  -0.13
     8   1     0.02  -0.06   0.04     0.01  -0.02   0.02     0.04  -0.04  -0.04
     9   1    -0.06  -0.05  -0.02    -0.00  -0.01  -0.05     0.01  -0.02  -0.15
    10   1    -0.08  -0.00   0.03    -0.03   0.00   0.03    -0.03   0.02  -0.02
    11   1    -0.02   0.03  -0.01    -0.02   0.01   0.04    -0.05   0.02   0.16
    12   6     0.00   0.01   0.00     0.01   0.00  -0.00     0.02   0.01   0.04
    13   6    -0.00   0.02  -0.00     0.00  -0.02  -0.02    -0.02  -0.06  -0.01
    14   6    -0.01   0.02  -0.00     0.00  -0.01  -0.02     0.01  -0.08  -0.05
    15   6    -0.01   0.02  -0.01     0.00  -0.02  -0.00    -0.02  -0.09  -0.02
    16   1    -0.00   0.02   0.00     0.01  -0.03  -0.03    -0.01  -0.07  -0.01
    17   6    -0.01   0.02   0.00    -0.00  -0.01  -0.01     0.03  -0.07   0.00
    18   1    -0.02   0.02  -0.01    -0.00  -0.01  -0.04    -0.02  -0.13  -0.09
    19   6    -0.01   0.02  -0.01     0.01  -0.01   0.02     0.07  -0.05   0.08
    20   1    -0.01   0.01  -0.01     0.00  -0.02   0.00    -0.04  -0.09  -0.07
    21   1    -0.01   0.02  -0.00    -0.02  -0.01  -0.02     0.00  -0.06  -0.01
    22   1    -0.02   0.02  -0.01     0.02   0.00   0.05     0.12  -0.01   0.15
    23  16     0.07   0.02   0.03     0.00   0.00  -0.00    -0.01   0.04  -0.02
    24   8     0.07  -0.07  -0.06     0.00   0.00  -0.03    -0.02  -0.02  -0.19
    25   8    -0.02   0.10   0.02     0.01   0.01  -0.01     0.12   0.01  -0.09
    26   6    -0.03  -0.02   0.07     0.00   0.00   0.00     0.01   0.02   0.07
    27   6    -0.02  -0.06   0.02     0.01  -0.00  -0.00     0.02  -0.04   0.05
    28   6    -0.08   0.01   0.04    -0.00   0.00   0.01    -0.01   0.03   0.08
    29   6    -0.06  -0.06  -0.09    -0.01  -0.01  -0.00    -0.00  -0.05  -0.03
    30   1     0.02  -0.09   0.05     0.02  -0.01  -0.00     0.06  -0.07   0.09
    31   6    -0.09  -0.01  -0.09    -0.00   0.00  -0.01    -0.01   0.01  -0.03
    32   1    -0.10   0.07   0.09    -0.00   0.01   0.01    -0.04   0.05   0.12
    33   6    -0.07  -0.03  -0.12    -0.01  -0.01  -0.01     0.01  -0.03  -0.07
    34   1    -0.05  -0.11  -0.11    -0.01  -0.02   0.00    -0.00  -0.09  -0.03
    35   1    -0.13   0.03  -0.13    -0.00   0.01  -0.02    -0.05   0.05  -0.06
    36   6     0.12   0.08   0.12     0.01   0.00   0.01     0.05  -0.01   0.04
    37   1     0.15   0.11   0.17     0.02   0.00   0.01     0.03   0.03   0.07
    38   1     0.06   0.33   0.27     0.01   0.02   0.02     0.02   0.06   0.12
    39   1     0.37  -0.10   0.20     0.03  -0.01   0.01     0.14  -0.11   0.08
    40   7     0.06  -0.02  -0.00    -0.02   0.03   0.02    -0.25   0.27   0.16
    41   1     0.03  -0.01   0.06    -0.01   0.02   0.01    -0.22   0.27   0.11
    42   6     0.01  -0.00   0.01    -0.00   0.02   0.04    -0.02   0.07   0.14
    43   6    -0.00  -0.00  -0.09    -0.02  -0.10  -0.02     0.01   0.04   0.05
    44   6     0.00   0.02   0.12     0.01   0.08   0.08    -0.01  -0.00   0.02
    45   6     0.01  -0.01  -0.08    -0.08  -0.10  -0.05     0.03   0.02   0.01
    46   6     0.00   0.02   0.14    -0.02   0.09   0.02    -0.01  -0.05  -0.17
    47   1     0.00   0.03   0.15     0.01   0.11   0.15    -0.01   0.01   0.13
    48   6    -0.00   0.01   0.02     0.00  -0.04  -0.01     0.00  -0.01  -0.08
    49   6    -0.01  -0.01  -0.06    -0.06  -0.02  -0.01     0.00   0.01   0.07
    50   1     0.02  -0.02  -0.05    -0.13   0.01   0.01     0.03   0.03   0.14
    51   6     0.02  -0.06   0.03    -0.17   0.17  -0.05     0.04  -0.02   0.01
    52   1     0.09  -0.05   0.08    -0.42   0.23   0.02     0.08  -0.03  -0.01
    53   1    -0.07  -0.11   0.06    -0.15   0.21  -0.05     0.04  -0.02   0.01
    54   1     0.05  -0.06   0.06    -0.01   0.35  -0.09     0.01  -0.06   0.02
    55   6     0.02   0.00  -0.05    -0.13   0.02  -0.01     0.01  -0.01   0.03
    56   1    -0.08   0.08  -0.11    -0.27   0.06  -0.00     0.13  -0.11   0.11
    57   1     0.16  -0.13  -0.09    -0.14  -0.00  -0.02    -0.10   0.14   0.07
    58   1    -0.02   0.01  -0.17    -0.10  -0.11  -0.05     0.03   0.00   0.12
    59   6     0.00   0.05   0.02     0.10   0.01   0.03    -0.02  -0.02  -0.02
    60   1     0.01   0.07   0.11     0.22  -0.04   0.11    -0.06  -0.01  -0.08
    61   1     0.04  -0.03   0.08     0.11   0.06   0.03    -0.05   0.01  -0.05
    62   1    -0.04   0.16   0.01     0.08   0.17  -0.01     0.01  -0.11  -0.01
    63   8    -0.04   0.02  -0.01     0.30  -0.13   0.05    -0.04   0.03   0.02
                     37                     38                     39
                      A                      A                      A
 Frequencies --    417.8313               418.6111               425.2612
 Red. masses --      3.6548                 3.0601                 3.6552
 Frc consts  --      0.3759                 0.3159                 0.3895
 IR Inten    --      4.5834                 0.7886                 0.1485
  Atom  AN      X      Y      Z        X      Y      Z        X      Y      Z
     1   6    -0.01  -0.03  -0.05     0.01   0.01  -0.02     0.02  -0.01  -0.06
     2   6    -0.01  -0.08  -0.01    -0.01   0.03   0.04    -0.02  -0.04   0.10
     3   6     0.01  -0.06   0.03    -0.00   0.03  -0.01     0.00  -0.03   0.02
     4   6    -0.05  -0.03  -0.07     0.03   0.02  -0.01    -0.01  -0.01  -0.07
     5   6    -0.09   0.01  -0.03     0.03  -0.01   0.05    -0.05  -0.01   0.07
     6   6    -0.10   0.01   0.02     0.04  -0.00  -0.01    -0.02   0.00  -0.02
     7   1     0.06   0.01  -0.08    -0.00   0.00  -0.05     0.07   0.01  -0.14
     8   1    -0.02  -0.08  -0.00    -0.02   0.03   0.08    -0.04  -0.05   0.15
     9   1    -0.10  -0.06  -0.10     0.06   0.04  -0.05    -0.00  -0.02  -0.19
    10   1    -0.10   0.01  -0.02     0.02  -0.01   0.08    -0.07  -0.01   0.13
    11   1    -0.12   0.04   0.08     0.05  -0.02  -0.03    -0.01   0.02  -0.05
    12   6     0.07   0.04   0.05    -0.02  -0.02  -0.02    -0.01  -0.00   0.01
    13   6    -0.02  -0.04  -0.11     0.03   0.03   0.07     0.05   0.07   0.13
    14   6     0.04   0.07   0.04    -0.03  -0.04  -0.04    -0.09  -0.08  -0.12
    15   6     0.04   0.03   0.04    -0.03  -0.02  -0.04    -0.07  -0.05  -0.12
    16   1    -0.07  -0.11  -0.24     0.07   0.08   0.15     0.12   0.14   0.25
    17   6    -0.07  -0.01  -0.10     0.04   0.02   0.06     0.06   0.05   0.10
    18   1     0.06   0.13   0.06    -0.06  -0.08  -0.08    -0.17  -0.16  -0.26
    19   6     0.01   0.04   0.04    -0.01  -0.02  -0.02     0.01   0.01   0.01
    20   1     0.07   0.02   0.09    -0.06  -0.04  -0.09    -0.15  -0.11  -0.26
    21   1    -0.15  -0.07  -0.22     0.09   0.06   0.14     0.13   0.11   0.21
    22   1     0.01   0.06   0.10    -0.01  -0.02  -0.04     0.02   0.02   0.01
    23  16     0.03  -0.00   0.01    -0.00  -0.00  -0.01     0.06   0.03   0.01
    24   8     0.03  -0.01  -0.01    -0.00  -0.01   0.01     0.08  -0.03  -0.02
    25   8    -0.01   0.06  -0.02     0.00  -0.01  -0.00    -0.03   0.10   0.04
    26   6    -0.03  -0.02  -0.04     0.01   0.01   0.01    -0.07  -0.05  -0.07
    27   6    -0.09  -0.01   0.05    -0.09  -0.06   0.19    -0.09   0.02  -0.07
    28   6     0.04  -0.01  -0.13     0.09   0.06  -0.13    -0.07  -0.11  -0.00
    29   6     0.05   0.06  -0.07     0.09   0.03  -0.16    -0.02   0.06   0.05
    30   1    -0.18  -0.01   0.12    -0.20  -0.12   0.40    -0.14   0.07  -0.12
    31   6    -0.03  -0.04   0.09    -0.10  -0.04   0.14     0.08  -0.03  -0.01
    32   1     0.11  -0.02  -0.26     0.18   0.11  -0.28    -0.10  -0.21   0.03
    33   6     0.01   0.02   0.04     0.01   0.00  -0.04     0.07   0.04   0.02
    34   1     0.10   0.13  -0.15     0.18   0.06  -0.32    -0.05   0.13   0.13
    35   1    -0.04  -0.11   0.20    -0.22  -0.10   0.32     0.17  -0.08   0.00
    36   6    -0.03  -0.00  -0.02     0.00   0.01   0.01    -0.05  -0.03  -0.04
    37   1    -0.04  -0.01  -0.04    -0.02   0.04   0.03    -0.13   0.01  -0.05
    38   1    -0.02  -0.07  -0.06    -0.01   0.02   0.05    -0.03  -0.19  -0.07
    39   1    -0.09   0.04  -0.05     0.04  -0.05   0.04    -0.17   0.02  -0.05
    40   7     0.13  -0.03   0.05    -0.05   0.01  -0.02     0.07   0.02   0.03
    41   1     0.27  -0.25  -0.12    -0.11   0.12   0.06     0.06  -0.01   0.05
    42   6     0.04   0.04   0.16    -0.01  -0.02  -0.06     0.02   0.01   0.02
    43   6     0.02   0.02   0.04    -0.01  -0.01  -0.00    -0.00   0.01   0.01
    44   6    -0.01   0.02   0.08     0.00  -0.01  -0.03     0.00   0.00   0.02
    45   6     0.01   0.00   0.01    -0.01  -0.00   0.01    -0.01   0.00   0.00
    46   6    -0.02  -0.01  -0.08     0.01   0.00   0.02     0.00  -0.01  -0.04
    47   1    -0.00   0.04   0.21     0.00  -0.01  -0.07     0.00   0.01   0.06
    48   6    -0.01  -0.01  -0.06     0.00   0.01   0.02    -0.00   0.00  -0.02
    49   6     0.00   0.01   0.02    -0.00  -0.01  -0.01    -0.00  -0.01  -0.00
    50   1     0.02   0.04   0.13    -0.01  -0.02  -0.05     0.00  -0.01  -0.02
    51   6     0.02  -0.01   0.00    -0.02   0.01  -0.00    -0.01  -0.00  -0.00
    52   1     0.04  -0.02  -0.01    -0.03   0.01  -0.01     0.00  -0.01  -0.00
    53   1     0.03  -0.01  -0.00    -0.01   0.01  -0.01    -0.00  -0.00  -0.00
    54   1     0.01  -0.03   0.01    -0.02   0.01  -0.01    -0.01  -0.01  -0.00
    55   6    -0.01   0.01   0.00     0.01  -0.00   0.00     0.00  -0.00   0.00
    56   1     0.03  -0.03   0.04    -0.00   0.00  -0.01     0.03  -0.02   0.02
    57   1    -0.05   0.07   0.02     0.03  -0.02  -0.00    -0.02   0.03   0.01
    58   1    -0.00   0.01   0.03     0.00  -0.00  -0.01     0.01   0.00   0.02
    59   6     0.00  -0.02  -0.01     0.00   0.01   0.00    -0.00   0.00  -0.00
    60   1    -0.02  -0.02  -0.05     0.01   0.00   0.02    -0.00   0.00   0.00
    61   1    -0.01   0.00  -0.02     0.00   0.00   0.00    -0.02  -0.00  -0.02
    62   1     0.02  -0.08   0.00     0.01   0.03  -0.01     0.02  -0.00  -0.02
    63   8    -0.02   0.01   0.04     0.01   0.00  -0.00     0.00   0.01   0.01
                     40                     41                     42
                      A                      A                      A
 Frequencies --    426.8192               443.7672               447.5431
 Red. masses --      3.8931                 3.5567                 4.7672
 Frc consts  --      0.4179                 0.4127                 0.5626
 IR Inten    --      0.6982                 6.9565                 4.6879
  Atom  AN      X      Y      Z        X      Y      Z        X      Y      Z
     1   6     0.02  -0.00  -0.13     0.04   0.03  -0.11     0.02   0.01  -0.04
     2   6    -0.04  -0.01   0.11    -0.06   0.00   0.22    -0.02   0.01   0.07
     3   6    -0.02  -0.00   0.08    -0.01   0.00  -0.02    -0.01   0.00   0.01
     4   6     0.02   0.02  -0.13     0.06   0.01  -0.16     0.03   0.00  -0.05
     5   6    -0.04  -0.00   0.07    -0.03  -0.02   0.17    -0.00  -0.00   0.05
     6   6    -0.04  -0.01   0.03     0.04   0.01  -0.03     0.02   0.00   0.01
     7   1     0.08   0.01  -0.30     0.08   0.03  -0.27     0.03   0.01  -0.11
     8   1    -0.07  -0.01   0.16    -0.08  -0.02   0.38    -0.02  -0.00   0.10
     9   1     0.07   0.04  -0.32     0.13   0.04  -0.33     0.06   0.02  -0.13
    10   1    -0.05  -0.01   0.14    -0.10  -0.02   0.33    -0.02  -0.00   0.09
    11   1    -0.05  -0.01   0.06     0.05   0.01  -0.08     0.02   0.00  -0.00
    12   6     0.04   0.01  -0.01    -0.03  -0.02  -0.00    -0.01  -0.01  -0.01
    13   6     0.08   0.05   0.03    -0.07  -0.05  -0.06    -0.02  -0.02  -0.02
    14   6    -0.03   0.02  -0.08     0.06   0.04   0.14     0.02   0.01   0.04
    15   6    -0.01  -0.02  -0.06     0.05   0.05   0.09     0.01   0.01   0.03
    16   1     0.12   0.07   0.08    -0.13  -0.09  -0.14    -0.04  -0.02  -0.03
    17   6     0.00   0.07   0.04    -0.02  -0.05  -0.05    -0.00  -0.02  -0.01
    18   1    -0.08   0.02  -0.17     0.11   0.07   0.22     0.04   0.02   0.07
    19   6    -0.02   0.03   0.00    -0.00  -0.03  -0.03     0.00  -0.01  -0.01
    20   1    -0.05  -0.10  -0.12     0.10   0.12   0.19     0.03   0.04   0.06
    21   1     0.02   0.10   0.09    -0.05  -0.10  -0.12    -0.01  -0.03  -0.03
    22   1    -0.05   0.02   0.01    -0.02  -0.04  -0.08     0.00  -0.02  -0.02
    23  16    -0.06  -0.06   0.00     0.01   0.03  -0.01     0.01   0.01  -0.00
    24   8    -0.08   0.06   0.03     0.02  -0.02   0.00     0.01  -0.00   0.00
    25   8     0.01  -0.08  -0.06     0.00  -0.00   0.04    -0.01   0.01   0.02
    26   6     0.08   0.03   0.06    -0.01   0.01  -0.02    -0.00  -0.00  -0.01
    27   6     0.15   0.02  -0.04    -0.02  -0.00  -0.01    -0.01  -0.00   0.00
    28   6     0.06   0.10  -0.00    -0.02  -0.02   0.03    -0.02  -0.01   0.01
    29   6    -0.02  -0.06   0.01    -0.01   0.00   0.01    -0.00   0.00   0.00
    30   1     0.26   0.01  -0.13    -0.02  -0.00  -0.00    -0.02  -0.00   0.01
    31   6    -0.05   0.04  -0.04     0.02  -0.00  -0.01     0.01  -0.00   0.00
    32   1     0.08   0.19  -0.03    -0.05  -0.04   0.07    -0.03  -0.03   0.03
    33   6    -0.11  -0.04   0.05     0.03   0.01  -0.02     0.02   0.01  -0.01
    34   1     0.00  -0.14  -0.04    -0.03   0.01   0.05    -0.01   0.01   0.02
    35   1    -0.07   0.12  -0.14     0.02  -0.01   0.01     0.01  -0.01   0.01
    36   6     0.04   0.04   0.02    -0.00  -0.01  -0.00    -0.00  -0.00  -0.00
    37   1     0.19  -0.07   0.01    -0.04   0.02   0.01    -0.03   0.02   0.00
    38   1     0.03   0.23   0.01    -0.00  -0.05   0.01    -0.00  -0.03   0.01
    39   1     0.13   0.07   0.00    -0.01  -0.03   0.01    -0.01  -0.01   0.01
    40   7     0.07  -0.12  -0.03    -0.05   0.03  -0.01    -0.04   0.01  -0.02
    41   1     0.12  -0.16  -0.13    -0.06   0.03   0.02    -0.10   0.11   0.06
    42   6     0.01  -0.02   0.08    -0.02  -0.02  -0.08    -0.01  -0.01  -0.03
    43   6     0.01   0.01   0.04    -0.05   0.02  -0.02     0.16  -0.13   0.01
    44   6     0.00   0.01   0.02    -0.00  -0.03  -0.04     0.08   0.07  -0.08
    45   6    -0.00   0.01   0.03    -0.01   0.02   0.02    -0.01  -0.07  -0.04
    46   6    -0.01  -0.00  -0.05     0.05  -0.04   0.01    -0.12   0.15  -0.00
    47   1     0.01   0.01   0.08    -0.01   0.00  -0.08     0.11  -0.10  -0.13
    48   6    -0.01  -0.00  -0.03     0.03   0.01   0.02    -0.10   0.01   0.01
    49   6     0.01   0.00   0.01    -0.03  -0.02  -0.02     0.13   0.05   0.01
    50   1     0.01   0.01   0.05    -0.02  -0.04  -0.05     0.00   0.10   0.00
    51   6     0.00  -0.01  -0.00    -0.02   0.02  -0.01    -0.01  -0.08   0.02
    52   1     0.02  -0.02  -0.02    -0.04   0.02  -0.02     0.06  -0.08   0.06
    53   1     0.03  -0.00  -0.01     0.02   0.04  -0.02    -0.09  -0.13   0.05
    54   1    -0.02  -0.03  -0.01    -0.03   0.02  -0.02    -0.00  -0.09   0.05
    55   6    -0.01   0.01   0.00     0.05  -0.06   0.01    -0.14   0.22  -0.04
    56   1     0.02  -0.02   0.03     0.04  -0.06   0.01    -0.13   0.22  -0.04
    57   1    -0.04   0.05   0.02     0.05  -0.06   0.01    -0.12   0.21  -0.04
    58   1    -0.00   0.01   0.03     0.05  -0.07   0.01    -0.16   0.25  -0.05
    59   6     0.00  -0.01  -0.00    -0.05   0.05  -0.02     0.17  -0.21   0.08
    60   1    -0.00  -0.01  -0.03    -0.02   0.04  -0.02     0.10  -0.17   0.07
    61   1    -0.02   0.00  -0.03    -0.03   0.07  -0.01     0.19  -0.27   0.11
    62   1     0.03  -0.06  -0.01    -0.06   0.06  -0.01     0.15  -0.22   0.10
    63   8    -0.01   0.01   0.01     0.02   0.01  -0.01    -0.12   0.00  -0.01
                     43                     44                     45
                      A                      A                      A
 Frequencies --    480.9741               492.3052               496.8179
 Red. masses --      4.5733                 3.4901                 5.5161
 Frc consts  --      0.6233                 0.4984                 0.8022
 IR Inten    --      4.0286                 8.2809                33.0910
  Atom  AN      X      Y      Z        X      Y      Z        X      Y      Z
     1   6    -0.00   0.01   0.02     0.02   0.01  -0.11     0.02   0.02  -0.02
     2   6    -0.00   0.02   0.01    -0.00   0.02  -0.02     0.01   0.03   0.01
     3   6     0.00   0.01  -0.04    -0.07  -0.00   0.24    -0.04   0.01   0.04
     4   6     0.01   0.00   0.01     0.01   0.02  -0.00     0.02  -0.00  -0.01
     5   6     0.01  -0.01   0.02     0.04   0.01  -0.11     0.03  -0.01  -0.01
     6   6     0.03  -0.00  -0.02    -0.04  -0.01   0.16     0.04  -0.00   0.04
     7   1    -0.03  -0.00   0.05     0.07   0.02  -0.32     0.01   0.01  -0.09
     8   1    -0.02   0.02   0.04     0.04   0.03  -0.20     0.03   0.02  -0.04
     9   1     0.01   0.01   0.04     0.08   0.05  -0.17     0.06   0.02  -0.04
    10   1     0.00  -0.01   0.06     0.11   0.03  -0.32     0.03  -0.00  -0.05
    11   1     0.03  -0.01  -0.05    -0.07  -0.03   0.27     0.04  -0.01   0.04
    12   6    -0.03  -0.04  -0.06     0.02  -0.00  -0.02    -0.06  -0.06  -0.12
    13   6     0.01   0.01  -0.00     0.03   0.00  -0.04     0.00   0.00  -0.01
    14   6     0.00   0.01   0.02     0.02   0.03  -0.01     0.01   0.01   0.01
    15   6     0.02   0.02   0.03     0.02  -0.00   0.00     0.03   0.03   0.06
    16   1     0.02   0.02   0.02     0.04   0.01  -0.02     0.05   0.04   0.07
    17   6     0.00   0.02   0.03    -0.02   0.01  -0.00     0.02   0.03   0.05
    18   1     0.03   0.05   0.06     0.02   0.07  -0.01     0.06   0.07   0.09
    19   6    -0.04  -0.01  -0.04    -0.02   0.01   0.00    -0.05  -0.04  -0.07
    20   1     0.05   0.04   0.09     0.03  -0.03   0.03     0.10   0.08   0.17
    21   1     0.04   0.04   0.08    -0.03   0.02  -0.00     0.08   0.08   0.15
    22   1    -0.06  -0.03  -0.08    -0.03   0.00   0.02    -0.08  -0.07  -0.13
    23  16    -0.02   0.00   0.13     0.04  -0.02   0.01     0.03  -0.03   0.03
    24   8    -0.05  -0.09  -0.15     0.03   0.03  -0.03     0.02   0.02  -0.03
    25   8     0.14   0.08  -0.09    -0.03   0.04   0.01    -0.02   0.04   0.00
    26   6    -0.13  -0.05   0.13     0.01  -0.02  -0.03    -0.02  -0.04   0.02
    27   6    -0.01   0.02  -0.10    -0.01  -0.01   0.00    -0.00  -0.00  -0.01
    28   6     0.04   0.00  -0.13    -0.02  -0.03  -0.01    -0.01  -0.02  -0.03
    29   6     0.02   0.04  -0.04     0.00   0.01   0.01     0.01   0.01  -0.00
    30   1     0.09   0.09  -0.30    -0.05   0.00   0.02    -0.01   0.02  -0.05
    31   6     0.03  -0.00  -0.02    -0.00  -0.02   0.00     0.00  -0.01  -0.01
    32   1     0.18   0.02  -0.36    -0.04  -0.04   0.02     0.02  -0.02  -0.08
    33   6    -0.09  -0.05   0.20     0.01   0.03  -0.02    -0.02   0.01   0.03
    34   1     0.14   0.15  -0.24    -0.02   0.00   0.04     0.04   0.03  -0.04
    35   1     0.18   0.05  -0.20     0.01  -0.04   0.04     0.05  -0.01  -0.04
    36   6    -0.00  -0.02  -0.01    -0.02   0.02  -0.00    -0.02   0.02  -0.00
    37   1     0.16  -0.22  -0.10    -0.05   0.05   0.00     0.00  -0.00  -0.02
    38   1     0.03   0.03  -0.14    -0.02  -0.01   0.01    -0.01   0.02  -0.02
    39   1    -0.07   0.18  -0.11    -0.03   0.01   0.01    -0.04   0.06  -0.02
    40   7    -0.00   0.01   0.13    -0.05  -0.06  -0.03    -0.05  -0.02  -0.01
    41   1     0.01  -0.06   0.14    -0.19   0.16   0.15    -0.12   0.07   0.09
    42   6    -0.02  -0.04  -0.03    -0.02  -0.04   0.04    -0.05  -0.04  -0.03
    43   6    -0.01  -0.02  -0.01    -0.03   0.01   0.03     0.03   0.09  -0.04
    44   6     0.02  -0.01  -0.08    -0.01  -0.03  -0.15    -0.19   0.01   0.06
    45   6    -0.02  -0.01  -0.05     0.00  -0.03  -0.13     0.17   0.02   0.03
    46   6     0.03   0.02   0.07     0.04   0.01   0.11    -0.17  -0.03  -0.07
    47   1     0.01  -0.02  -0.21    -0.03  -0.04  -0.41    -0.16  -0.07   0.20
    48   6     0.01   0.03   0.02     0.02   0.01   0.05    -0.02  -0.17   0.02
    49   6    -0.00  -0.02   0.02    -0.01   0.01   0.11    -0.02   0.12  -0.04
    50   1    -0.02  -0.01   0.02    -0.03   0.02   0.11     0.10   0.10   0.01
    51   6    -0.04   0.00   0.00    -0.02   0.01   0.01     0.26   0.03   0.01
    52   1    -0.04   0.01   0.03    -0.03   0.04   0.08     0.27   0.02  -0.02
    53   1    -0.09  -0.01   0.02    -0.17  -0.02   0.06     0.30   0.04  -0.00
    54   1     0.02   0.03   0.02     0.10   0.08   0.06     0.22   0.00  -0.00
    55   6     0.02  -0.01   0.00     0.03  -0.04   0.01    -0.12   0.08  -0.01
    56   1    -0.02   0.03  -0.04    -0.03   0.02  -0.04    -0.05   0.02   0.04
    57   1     0.05  -0.07  -0.02     0.07  -0.12  -0.01    -0.14   0.14   0.01
    58   1     0.01  -0.02  -0.02     0.02  -0.05  -0.02    -0.12   0.12   0.01
    59   6     0.00  -0.01   0.00    -0.02   0.02  -0.01    -0.03   0.10  -0.02
    60   1     0.01  -0.01   0.01     0.01  -0.00  -0.03    -0.02   0.10  -0.01
    61   1     0.01  -0.01   0.01    -0.04   0.06  -0.05    -0.01   0.10  -0.01
    62   1    -0.00   0.00   0.00     0.01  -0.01  -0.02    -0.04   0.14  -0.02
    63   8    -0.00   0.03  -0.02    -0.00  -0.00  -0.02     0.04  -0.21   0.07
                     46                     47                     48
                      A                      A                      A
 Frequencies --    502.2240               525.3600               542.7434
 Red. masses --      3.9756                 3.0104                 5.1563
 Frc consts  --      0.5908                 0.4895                 0.8949
 IR Inten    --      9.1212                19.1082                57.8791
  Atom  AN      X      Y      Z        X      Y      Z        X      Y      Z
     1   6     0.03   0.02  -0.04    -0.02   0.02   0.02    -0.01  -0.01   0.06
     2   6     0.02   0.04  -0.04    -0.01   0.02   0.00     0.01  -0.01  -0.00
     3   6    -0.06   0.01   0.08     0.01   0.02  -0.06     0.04  -0.00  -0.12
     4   6     0.01  -0.01   0.02     0.02   0.01  -0.01     0.00  -0.01  -0.03
     5   6     0.04  -0.01  -0.06     0.01   0.00   0.04    -0.03  -0.01   0.07
     6   6     0.02  -0.01   0.09     0.02   0.00  -0.03     0.03   0.01  -0.09
     7   1     0.02   0.00  -0.11    -0.04   0.01   0.05    -0.04  -0.01   0.20
     8   1     0.06   0.03  -0.11    -0.02   0.02   0.03    -0.01  -0.02   0.09
     9   1     0.05   0.02  -0.01     0.02   0.02   0.02    -0.04  -0.03   0.07
    10   1     0.06   0.00  -0.17    -0.01  -0.00   0.09    -0.08  -0.02   0.21
    11   1     0.00  -0.02   0.16     0.03  -0.01  -0.07     0.04   0.02  -0.13
    12   6    -0.06  -0.07  -0.15     0.06   0.06   0.09    -0.05  -0.04  -0.09
    13   6     0.01   0.00  -0.02    -0.00  -0.01  -0.02    -0.01  -0.00  -0.01
    14   6     0.02   0.02   0.01     0.02   0.01   0.01    -0.00  -0.00  -0.02
    15   6     0.04   0.04   0.08    -0.03  -0.04  -0.05     0.02   0.03   0.05
    16   1     0.07   0.05   0.07    -0.03  -0.03  -0.05     0.06   0.02   0.06
    17   6     0.02   0.03   0.06    -0.03  -0.04  -0.06     0.02   0.02   0.04
    18   1     0.08   0.10   0.11    -0.02  -0.03  -0.06     0.05   0.06   0.07
    19   6    -0.06  -0.05  -0.09     0.05   0.03   0.08    -0.04  -0.03  -0.06
    20   1     0.12   0.09   0.22    -0.07  -0.09  -0.13     0.08   0.08   0.16
    21   1     0.08   0.10   0.18    -0.11  -0.09  -0.17     0.08   0.09   0.16
    22   1    -0.10  -0.08  -0.15     0.08   0.06   0.14    -0.05  -0.04  -0.08
    23  16     0.04  -0.02   0.01     0.06  -0.08  -0.01     0.03  -0.13   0.03
    24   8     0.03   0.03  -0.03     0.05   0.07   0.03    -0.01   0.16  -0.03
    25   8    -0.03   0.03   0.01    -0.11   0.04   0.00    -0.11   0.06  -0.10
    26   6    -0.00  -0.03   0.00    -0.04  -0.11   0.12     0.14  -0.09  -0.10
    27   6    -0.00  -0.00  -0.00     0.04  -0.01   0.01     0.09  -0.02   0.03
    28   6    -0.02  -0.03  -0.01    -0.01  -0.04  -0.04    -0.01  -0.07  -0.02
    29   6     0.01   0.01   0.01     0.05   0.01  -0.01     0.04  -0.02   0.07
    30   1    -0.01   0.01  -0.02     0.07   0.06  -0.14    -0.02  -0.01   0.11
    31   6    -0.00  -0.01  -0.01    -0.00  -0.02  -0.05    -0.05  -0.06  -0.01
    32   1    -0.01  -0.02  -0.03     0.07   0.03  -0.17    -0.08  -0.02   0.11
    33   6    -0.00   0.02   0.00    -0.07   0.02   0.08    -0.01   0.10  -0.08
    34   1     0.01   0.01   0.00     0.13   0.01  -0.17    -0.04  -0.18   0.18
    35   1     0.03  -0.02  -0.01     0.13  -0.00  -0.18    -0.07  -0.16   0.15
    36   6    -0.02   0.02  -0.00    -0.04   0.08   0.00    -0.07   0.15  -0.01
    37   1    -0.02   0.03  -0.00     0.02  -0.00  -0.03    -0.13   0.23   0.03
    38   1    -0.01   0.01  -0.00    -0.03   0.11  -0.04    -0.08   0.12   0.03
    39   1    -0.03   0.03  -0.00    -0.06   0.15  -0.03    -0.05   0.08   0.03
    40   7    -0.05  -0.03  -0.02    -0.07  -0.00  -0.10    -0.01   0.09   0.19
    41   1    -0.13   0.05   0.09    -0.38   0.53   0.27     0.19  -0.25  -0.04
    42   6    -0.06  -0.04   0.00    -0.00   0.01  -0.01    -0.01   0.01   0.09
    43   6     0.00  -0.03   0.00    -0.01  -0.00   0.02    -0.01   0.00   0.06
    44   6     0.10   0.02   0.18     0.00   0.00   0.02    -0.00   0.01  -0.06
    45   6    -0.09   0.04   0.16    -0.00   0.00   0.02     0.01  -0.03  -0.08
    46   6     0.04  -0.02  -0.12     0.01  -0.01  -0.03     0.03   0.02   0.05
    47   1     0.11   0.09   0.46     0.00   0.01   0.06    -0.01   0.03  -0.17
    48   6    -0.01   0.07  -0.07     0.00   0.01  -0.01     0.02   0.01  -0.02
    49   6     0.02  -0.08  -0.10    -0.00  -0.01  -0.00    -0.02  -0.01   0.05
    50   1     0.01  -0.08  -0.11    -0.01  -0.02  -0.04    -0.05   0.04   0.13
    51   6    -0.11  -0.02  -0.01    -0.01   0.00  -0.00    -0.01   0.00   0.00
    52   1    -0.10  -0.06  -0.11    -0.02  -0.00  -0.01    -0.02   0.02   0.05
    53   1     0.08   0.01  -0.09     0.02   0.01  -0.01    -0.10  -0.01   0.04
    54   1    -0.26  -0.10  -0.08    -0.02  -0.00  -0.01     0.08   0.05   0.04
    55   6     0.04  -0.01  -0.01     0.01  -0.01   0.00     0.01  -0.02   0.01
    56   1     0.10  -0.06   0.04     0.04  -0.03   0.02    -0.04   0.02  -0.02
    57   1    -0.01   0.07   0.02    -0.01   0.01   0.01     0.02  -0.06  -0.01
    58   1     0.05   0.00   0.03     0.02  -0.01   0.03     0.02  -0.05  -0.01
    59   6     0.01  -0.04   0.03     0.00  -0.01   0.00     0.01  -0.01   0.00
    60   1    -0.02  -0.03   0.02     0.01  -0.01  -0.01     0.03  -0.03  -0.03
    61   1     0.03  -0.07   0.05    -0.01   0.02  -0.01    -0.02   0.04  -0.05
    62   1    -0.01  -0.04   0.04     0.01  -0.01   0.00     0.06  -0.06  -0.01
    63   8     0.00   0.10  -0.01    -0.00   0.01  -0.00    -0.02   0.03  -0.01
                     49                     50                     51
                      A                      A                      A
 Frequencies --    558.1120               570.8549               591.4526
 Red. masses --      3.6826                 3.4648                 2.8683
 Frc consts  --      0.6758                 0.6652                 0.5912
 IR Inten    --    130.0536                 7.7572                43.8263
  Atom  AN      X      Y      Z        X      Y      Z        X      Y      Z
     1   6    -0.02   0.01   0.02    -0.00  -0.01  -0.01    -0.02  -0.02   0.02
     2   6    -0.01   0.05  -0.00    -0.00  -0.00   0.00     0.00  -0.05  -0.02
     3   6    -0.00   0.03  -0.04     0.01   0.00   0.02     0.06  -0.01  -0.03
     4   6     0.01   0.03  -0.01    -0.00   0.01   0.00     0.01   0.02  -0.02
     5   6     0.01  -0.00   0.04    -0.00   0.01  -0.01    -0.02   0.03   0.03
     6   6     0.02  -0.01  -0.03    -0.02  -0.00   0.01    -0.04   0.01  -0.05
     7   1    -0.07  -0.01   0.05     0.01  -0.00  -0.03     0.01  -0.00   0.10
     8   1    -0.03   0.06   0.01    -0.01   0.00  -0.01    -0.03  -0.04   0.01
     9   1     0.04   0.05   0.02    -0.00   0.01  -0.02    -0.05  -0.01   0.03
    10   1     0.01  -0.02   0.09     0.01   0.00  -0.03    -0.02   0.01   0.12
    11   1     0.03  -0.03  -0.06    -0.02  -0.00   0.01    -0.04   0.00  -0.05
    12   6     0.08   0.00   0.05     0.01   0.01   0.03    -0.02  -0.05  -0.07
    13   6     0.05   0.02  -0.03     0.00   0.00   0.01    -0.02  -0.00  -0.05
    14   6     0.01   0.02   0.01    -0.01  -0.00   0.02    -0.01  -0.02  -0.02
    15   6    -0.00  -0.01  -0.05    -0.01  -0.00  -0.02     0.01   0.03   0.04
    16   1     0.00   0.03  -0.05    -0.02  -0.02  -0.02     0.02   0.08   0.07
    17   6    -0.05  -0.01  -0.03    -0.01  -0.01  -0.01     0.01  -0.00   0.05
    18   1    -0.02   0.05  -0.05    -0.02  -0.01  -0.00     0.04   0.04   0.05
    19   6    -0.01   0.06   0.05     0.01   0.02   0.01    -0.04  -0.02  -0.05
    20   1    -0.03  -0.10  -0.09    -0.03  -0.02  -0.05     0.09   0.08   0.18
    21   1    -0.09  -0.06  -0.11    -0.02  -0.03  -0.05     0.08   0.05   0.16
    22   1     0.00   0.07   0.09     0.01   0.02   0.01    -0.02  -0.00  -0.05
    23  16    -0.04  -0.01   0.14     0.00  -0.02   0.00    -0.01   0.01  -0.01
    24   8    -0.09  -0.03  -0.10    -0.00   0.02  -0.01    -0.00  -0.03   0.02
    25   8     0.10   0.07  -0.05    -0.01   0.01  -0.01     0.01  -0.01  -0.00
    26   6     0.08   0.03  -0.16     0.02  -0.02  -0.00    -0.02   0.03   0.01
    27   6     0.00  -0.01  -0.03     0.02  -0.00   0.01    -0.02   0.01  -0.00
    28   6    -0.02  -0.02  -0.01     0.01  -0.01  -0.01    -0.01   0.02   0.02
    29   6    -0.03  -0.02   0.06     0.01  -0.00   0.01    -0.02   0.01  -0.01
    30   1    -0.08  -0.04   0.11     0.00   0.00   0.01     0.00   0.00  -0.01
    31   6    -0.02  -0.02   0.04    -0.01  -0.02  -0.01     0.01   0.03   0.01
    32   1    -0.10  -0.06   0.12    -0.00  -0.00   0.01     0.01   0.01  -0.01
    33   6     0.07   0.04  -0.10    -0.01   0.01  -0.00     0.01  -0.02  -0.00
    34   1    -0.14  -0.07   0.26     0.01  -0.03   0.01    -0.01   0.04  -0.01
    35   1    -0.11  -0.09   0.23     0.00  -0.03   0.01    -0.01   0.05  -0.02
    36   6     0.00   0.01  -0.01    -0.02   0.03  -0.00     0.02  -0.05   0.00
    37   1    -0.09   0.11   0.03    -0.01   0.03  -0.00     0.02  -0.04   0.00
    38   1    -0.01  -0.05   0.04    -0.02   0.03  -0.00     0.02  -0.04   0.01
    39   1     0.01  -0.08   0.04    -0.02   0.03  -0.00     0.03  -0.05   0.00
    40   7    -0.00  -0.14  -0.04    -0.00   0.03   0.06     0.03  -0.02  -0.09
    41   1    -0.34   0.45   0.35     0.09  -0.14  -0.06    -0.24   0.54   0.19
    42   6    -0.01  -0.08   0.01     0.01  -0.02  -0.03     0.05   0.04   0.10
    43   6    -0.00  -0.01  -0.02     0.08   0.09  -0.13     0.01   0.09   0.22
    44   6     0.00  -0.00   0.04     0.04  -0.15  -0.01     0.00  -0.04   0.02
    45   6     0.00   0.01   0.04    -0.08   0.13   0.00    -0.01   0.02  -0.12
    46   6    -0.01  -0.01  -0.04    -0.12  -0.06   0.02    -0.04  -0.02   0.05
    47   1     0.00   0.00   0.10     0.07  -0.33  -0.04     0.01  -0.10   0.02
    48   6    -0.01   0.01   0.01    -0.09   0.05   0.04    -0.03   0.00  -0.07
    49   6    -0.00  -0.01  -0.02     0.17  -0.02   0.05     0.06  -0.03  -0.03
    50   1     0.01  -0.02  -0.01     0.31  -0.06   0.06     0.09  -0.03  -0.00
    51   6     0.01   0.00  -0.00    -0.10  -0.04   0.00    -0.03  -0.01  -0.01
    52   1     0.01  -0.00  -0.02     0.14  -0.07   0.01     0.07  -0.00   0.06
    53   1     0.06   0.01  -0.02    -0.13  -0.15   0.01    -0.18  -0.08   0.05
    54   1    -0.03  -0.01  -0.02    -0.24  -0.18   0.02     0.03  -0.02   0.06
    55   6    -0.00   0.01  -0.00    -0.01   0.06  -0.01     0.00   0.01  -0.00
    56   1     0.03  -0.02   0.02     0.18  -0.00  -0.01     0.03   0.02  -0.03
    57   1    -0.02   0.04   0.01     0.13   0.06  -0.01     0.10  -0.05  -0.02
    58   1    -0.00   0.02   0.01    -0.08   0.29  -0.05    -0.03   0.09  -0.05
    59   6    -0.00   0.00   0.00    -0.09   0.03  -0.03    -0.03   0.00   0.01
    60   1    -0.00   0.00   0.02    -0.32   0.17  -0.01    -0.08  -0.01  -0.17
    61   1     0.01  -0.01   0.02    -0.03  -0.20   0.10    -0.17   0.13  -0.16
    62   1    -0.02   0.03   0.01    -0.16  -0.03   0.04     0.14  -0.27  -0.01
    63   8     0.01  -0.00  -0.01     0.16  -0.05  -0.01     0.06  -0.00   0.02
                     52                     53                     54
                      A                      A                      A
 Frequencies --    619.5880               629.7786               632.7232
 Red. masses --      3.8291                 5.7635                 6.2845
 Frc consts  --      0.8661                 1.3468                 1.4823
 IR Inten    --     12.2676                 3.2144                 3.1921
  Atom  AN      X      Y      Z        X      Y      Z        X      Y      Z
     1   6     0.01   0.10   0.01     0.13  -0.13   0.00     0.19  -0.18   0.06
     2   6    -0.02   0.09  -0.00     0.10   0.09   0.05     0.17   0.20   0.04
     3   6    -0.15  -0.01  -0.05     0.02   0.07   0.04    -0.01   0.12  -0.01
     4   6    -0.00  -0.11  -0.01    -0.12   0.12   0.01    -0.17   0.18  -0.06
     5   6     0.02  -0.09  -0.00    -0.10  -0.10  -0.06    -0.19  -0.20  -0.05
     6   6     0.16   0.01   0.04    -0.03  -0.07   0.02     0.02  -0.11  -0.03
     7   1    -0.11   0.03  -0.00     0.10  -0.15  -0.08     0.04  -0.26   0.08
     8   1     0.09   0.02   0.06     0.03   0.14  -0.02     0.05   0.26   0.03
     9   1     0.09  -0.05   0.05    -0.05   0.15  -0.04    -0.05   0.26   0.02
    10   1    -0.12  -0.02  -0.01     0.01  -0.14  -0.13    -0.08  -0.27   0.04
    11   1     0.15   0.00   0.06    -0.04   0.13   0.02     0.00   0.21   0.01
    12   6    -0.02   0.12   0.01    -0.06  -0.04   0.09     0.09  -0.02  -0.02
    13   6     0.00   0.02   0.05    -0.02  -0.19   0.12     0.06   0.15  -0.09
    14   6     0.08   0.06  -0.05    -0.20   0.07   0.11     0.12  -0.06  -0.01
    15   6    -0.06  -0.05   0.01     0.21  -0.07  -0.09    -0.12   0.06   0.02
    16   1     0.05  -0.10  -0.06    -0.17  -0.14   0.10     0.09   0.11  -0.12
    17   6     0.03   0.01  -0.07     0.01   0.19  -0.12    -0.05  -0.16   0.09
    18   1     0.05  -0.03  -0.09    -0.22  -0.08   0.10     0.09   0.06  -0.08
    19   6     0.07  -0.07   0.06     0.07   0.05  -0.06    -0.07   0.03   0.05
    20   1    -0.13  -0.06  -0.13     0.18   0.02  -0.17    -0.12  -0.09   0.04
    21   1    -0.13   0.03  -0.14     0.10   0.08  -0.20    -0.10  -0.16   0.06
    22   1     0.05  -0.08   0.04    -0.14  -0.07   0.08     0.06   0.10  -0.07
    23  16     0.01   0.01   0.02    -0.02   0.01   0.02     0.03  -0.02  -0.03
    24   8     0.01   0.00  -0.03    -0.03  -0.01   0.00     0.04   0.03  -0.00
    25   8     0.01   0.01   0.02     0.02   0.01  -0.01    -0.04  -0.01   0.00
    26   6    -0.00   0.00  -0.01     0.02  -0.03   0.00    -0.02   0.04   0.01
    27   6    -0.01  -0.01  -0.01     0.03  -0.02   0.01    -0.04   0.03  -0.00
    28   6    -0.01   0.00  -0.01     0.01  -0.03  -0.01    -0.00   0.03   0.02
    29   6    -0.00  -0.00   0.01     0.02  -0.02   0.02    -0.03   0.03  -0.03
    30   1    -0.02  -0.01  -0.00     0.02  -0.01   0.01    -0.03   0.02   0.00
    31   6    -0.00   0.01   0.01    -0.01  -0.04  -0.01     0.01   0.03   0.00
    32   1    -0.02  -0.01   0.00     0.01  -0.02  -0.00     0.00   0.02   0.01
    33   6     0.01   0.00  -0.00    -0.01   0.02  -0.00     0.01  -0.03   0.01
    34   1    -0.01   0.01   0.03     0.02  -0.06   0.01    -0.03   0.07  -0.03
    35   1    -0.01  -0.00   0.03     0.02  -0.06   0.01    -0.02   0.06  -0.03
    36   6     0.00  -0.01  -0.00    -0.03   0.06  -0.00     0.03  -0.06   0.00
    37   1    -0.00   0.00   0.00    -0.03   0.06  -0.00     0.04  -0.08  -0.00
    38   1     0.00  -0.01   0.00    -0.03   0.05  -0.00     0.03  -0.06  -0.00
    39   1     0.00  -0.01   0.00    -0.03   0.05   0.00     0.03  -0.05  -0.00
    40   7    -0.03  -0.07  -0.01    -0.01   0.06   0.01    -0.05  -0.01   0.06
    41   1     0.16  -0.53  -0.19    -0.00   0.05   0.01     0.01  -0.13  -0.02
    42   6    -0.17   0.02  -0.01     0.05  -0.02  -0.11    -0.01  -0.07   0.04
    43   6     0.01   0.07   0.18    -0.01   0.03   0.12    -0.00   0.00   0.00
    44   6     0.01  -0.03   0.01     0.01   0.00   0.02    -0.00  -0.01  -0.01
    45   6    -0.00   0.01  -0.07     0.00  -0.01  -0.04     0.00  -0.00  -0.00
    46   6    -0.02  -0.00   0.06    -0.01   0.01   0.03    -0.00   0.00   0.01
    47   1     0.02  -0.05   0.06     0.01  -0.00   0.10    -0.00  -0.00  -0.01
    48   6    -0.02  -0.01  -0.09    -0.00  -0.02  -0.06     0.00   0.00  -0.01
    49   6     0.04  -0.02  -0.09     0.02  -0.00  -0.10    -0.01  -0.02  -0.00
    50   1     0.04  -0.04  -0.13    -0.01  -0.04  -0.23    -0.00  -0.00   0.03
    51   6    -0.00  -0.00  -0.00     0.00  -0.00  -0.00     0.01   0.00   0.00
    52   1     0.06   0.00   0.03     0.01   0.00   0.01     0.01   0.00   0.00
    53   1    -0.09  -0.04   0.03    -0.03  -0.01   0.01     0.01   0.00   0.00
    54   1     0.03  -0.01   0.03     0.03   0.01   0.01     0.02   0.01   0.00
    55   6    -0.01   0.01  -0.00    -0.01   0.01  -0.00    -0.01   0.01  -0.00
    56   1    -0.03   0.05  -0.05    -0.03   0.04  -0.03    -0.01   0.02  -0.01
    57   1     0.08  -0.06  -0.03     0.03  -0.04  -0.02     0.00   0.01  -0.00
    58   1    -0.03   0.06  -0.06    -0.01   0.01  -0.04    -0.01   0.02  -0.01
    59   6    -0.01  -0.00   0.01    -0.00   0.00   0.01    -0.00  -0.00  -0.00
    60   1    -0.04  -0.02  -0.13     0.02  -0.03  -0.07    -0.00  -0.00  -0.00
    61   1    -0.13   0.11  -0.14    -0.08   0.10  -0.09    -0.00  -0.00  -0.00
    62   1     0.14  -0.23  -0.01     0.09  -0.12  -0.01     0.00  -0.01  -0.00
    63   8     0.03   0.01   0.03     0.00  -0.00   0.02     0.00   0.01  -0.00
                     55                     56                     57
                      A                      A                      A
 Frequencies --    639.0689               645.8454               646.9688
 Red. masses --      5.0619                 5.2983                 6.8504
 Frc consts  --      1.2180                 1.3021                 1.6894
 IR Inten    --     23.2401                51.9418                 1.2174
  Atom  AN      X      Y      Z        X      Y      Z        X      Y      Z
     1   6    -0.01   0.03   0.06    -0.10   0.06  -0.03    -0.00   0.01   0.01
     2   6     0.01   0.06  -0.04    -0.07  -0.02  -0.03    -0.00   0.01   0.00
     3   6    -0.05   0.01  -0.05     0.02  -0.01   0.00    -0.02  -0.00  -0.00
     4   6     0.00  -0.02  -0.06     0.08   0.01   0.04    -0.00  -0.02  -0.01
     5   6    -0.02  -0.05   0.05     0.10   0.09   0.03    -0.00  -0.01   0.00
     6   6     0.08  -0.00  -0.05    -0.02   0.02  -0.00     0.02   0.00   0.00
     7   1    -0.10  -0.01   0.17    -0.08   0.08  -0.03    -0.01   0.00  -0.00
     8   1     0.03   0.03   0.02    -0.07  -0.02  -0.02     0.01  -0.00  -0.00
     9   1     0.03  -0.00   0.04     0.05  -0.01  -0.00     0.01  -0.01  -0.01
    10   1    -0.10  -0.04   0.19     0.12   0.09   0.02    -0.02  -0.00   0.00
    11   1     0.08   0.01  -0.04    -0.01  -0.14  -0.02     0.02   0.01  -0.01
    12   6    -0.04  -0.02   0.00     0.11  -0.15   0.05    -0.01   0.02  -0.00
    13   6     0.01  -0.12   0.03     0.13   0.04  -0.03    -0.01  -0.01   0.01
    14   6    -0.09   0.07  -0.02    -0.07  -0.05   0.13     0.00   0.01  -0.01
    15   6     0.14  -0.07  -0.04     0.08   0.03  -0.11     0.00  -0.01   0.01
    16   1     0.03  -0.05   0.12    -0.03   0.07  -0.08     0.01  -0.01   0.02
    17   6     0.01   0.15  -0.07    -0.11  -0.06   0.04     0.01   0.02  -0.01
    18   1    -0.05   0.07   0.06    -0.13   0.04  -0.00     0.01   0.00   0.00
    19   6     0.03  -0.00  -0.04    -0.08   0.19   0.01     0.01  -0.02  -0.00
    20   1     0.18   0.01   0.02     0.04  -0.19  -0.15     0.00   0.01   0.01
    21   1     0.07   0.18  -0.01    -0.00  -0.22  -0.10    -0.00   0.03   0.00
    22   1    -0.09  -0.05   0.13    -0.11   0.16  -0.01     0.01  -0.02   0.01
    23  16     0.06  -0.07  -0.02     0.04  -0.03  -0.04     0.01   0.00   0.01
    24   8     0.07   0.05  -0.01     0.06   0.05  -0.01     0.01  -0.00  -0.01
    25   8    -0.06  -0.01  -0.01    -0.05  -0.01   0.00     0.02   0.02   0.01
    26   6    -0.06   0.09  -0.01    -0.02   0.04   0.00     0.08   0.05   0.06
    27   6    -0.09   0.06  -0.03    -0.04   0.05  -0.00     0.02   0.34   0.11
    28   6    -0.04   0.11   0.02     0.01   0.03   0.02     0.29  -0.16   0.13
    29   6    -0.07   0.05  -0.04    -0.05   0.04  -0.03    -0.29   0.17  -0.11
    30   1    -0.08   0.04  -0.01    -0.03   0.04   0.01     0.12   0.28   0.13
    31   6     0.01   0.12   0.04     0.01   0.02  -0.00    -0.01  -0.33  -0.11
    32   1    -0.04   0.06   0.01    -0.00   0.02   0.03     0.27  -0.04   0.17
    33   6     0.04  -0.06   0.00     0.00  -0.03   0.00    -0.08  -0.05  -0.07
    34   1    -0.08   0.17   0.00    -0.05   0.08  -0.02    -0.29   0.05  -0.14
    35   1    -0.07   0.18   0.00    -0.03   0.06  -0.02    -0.11  -0.25  -0.15
    36   6     0.09  -0.18   0.01     0.03  -0.07   0.00    -0.04  -0.03  -0.03
    37   1     0.09  -0.18   0.01     0.04  -0.08  -0.01    -0.07  -0.02  -0.05
    38   1     0.09  -0.17   0.01     0.03  -0.07  -0.01    -0.03  -0.10  -0.06
    39   1     0.09  -0.17   0.00     0.03  -0.06  -0.01    -0.10  -0.01  -0.04
    40   7    -0.05  -0.09   0.03    -0.13   0.00   0.16     0.02  -0.01  -0.01
    41   1    -0.13   0.04   0.11     0.10  -0.43  -0.09    -0.05   0.08   0.08
    42   6    -0.09   0.00   0.20     0.04  -0.19  -0.08    -0.02   0.02   0.02
    43   6     0.02  -0.02  -0.11    -0.02   0.02   0.11     0.00  -0.00  -0.00
    44   6    -0.01  -0.01  -0.03    -0.00  -0.02   0.03     0.00   0.00   0.00
    45   6    -0.01   0.01   0.02     0.01  -0.01  -0.02    -0.00   0.00  -0.00
    46   6     0.00  -0.01  -0.02    -0.02   0.01   0.05     0.00  -0.00  -0.01
    47   1    -0.01  -0.01  -0.11    -0.00  -0.00   0.12     0.00   0.00  -0.00
    48   6    -0.00   0.03   0.07     0.01  -0.00  -0.09    -0.00   0.00   0.01
    49   6    -0.01  -0.01   0.10    -0.01  -0.04  -0.11     0.00  -0.00   0.01
    50   1     0.02   0.08   0.35    -0.02  -0.07  -0.19     0.00   0.00   0.02
    51   6    -0.01   0.00   0.00     0.04   0.01  -0.00    -0.00  -0.00  -0.00
    52   1    -0.00  -0.00  -0.01     0.03   0.01   0.00     0.00   0.00   0.00
    53   1     0.01  -0.00  -0.00     0.03   0.02   0.00    -0.00  -0.00   0.00
    54   1    -0.04  -0.01  -0.01     0.07   0.02   0.01    -0.00  -0.00   0.00
    55   6     0.01  -0.01   0.00    -0.03   0.03  -0.00     0.00  -0.00   0.00
    56   1     0.05  -0.04   0.03    -0.06   0.08  -0.05     0.01  -0.01   0.00
    57   1    -0.02   0.03   0.02     0.05  -0.04  -0.03    -0.01   0.01   0.00
    58   1     0.02   0.00   0.04    -0.05   0.06  -0.06     0.00  -0.01   0.01
    59   6    -0.00  -0.00  -0.01     0.01  -0.01   0.01    -0.00   0.00  -0.00
    60   1    -0.03   0.03   0.06     0.03  -0.04  -0.06    -0.00   0.00   0.00
    61   1     0.07  -0.10   0.09    -0.07   0.09  -0.08     0.00  -0.00   0.00
    62   1    -0.09   0.10   0.02     0.10  -0.12  -0.02    -0.01   0.01   0.00
    63   8     0.01   0.00  -0.03     0.01   0.03   0.02    -0.00  -0.00  -0.00
                     58                     59                     60
                      A                      A                      A
 Frequencies --    669.8947               676.4155               711.2318
 Red. masses --      5.7158                 5.4440                 3.8349
 Frc consts  --      1.5113                 1.4676                 1.1429
 IR Inten    --     13.7440                61.2355                11.8709
  Atom  AN      X      Y      Z        X      Y      Z        X      Y      Z
     1   6     0.00   0.00   0.01    -0.03   0.03   0.05    -0.01  -0.01   0.03
     2   6     0.00   0.01  -0.00     0.01   0.06  -0.08     0.01  -0.00  -0.03
     3   6    -0.01   0.00  -0.00    -0.05   0.01  -0.01    -0.00  -0.00   0.03
     4   6    -0.00   0.00  -0.01     0.02   0.00  -0.07     0.01   0.01  -0.02
     5   6    -0.01  -0.01   0.01    -0.01  -0.03   0.06    -0.01   0.00   0.03
     6   6     0.01  -0.00  -0.01     0.07  -0.00  -0.07     0.00   0.00  -0.02
     7   1    -0.02  -0.01   0.03    -0.14  -0.01   0.24     0.00  -0.00   0.02
     8   1     0.00   0.01   0.02     0.00   0.04   0.04     0.01   0.00  -0.07
     9   1     0.00   0.01   0.01     0.03   0.02   0.05     0.03   0.02  -0.09
    10   1    -0.02  -0.01   0.03    -0.09  -0.04   0.24     0.01   0.00  -0.00
    11   1     0.01   0.01   0.00     0.05  -0.02   0.02     0.02   0.01  -0.09
    12   6     0.00  -0.00   0.01     0.06  -0.08   0.01     0.01   0.00   0.02
    13   6     0.00  -0.01  -0.01     0.09  -0.01  -0.05     0.00  -0.00  -0.02
    14   6    -0.01   0.01  -0.01    -0.06  -0.03   0.00    -0.01  -0.01  -0.01
    15   6     0.02  -0.00   0.00     0.11  -0.00  -0.05     0.02   0.01   0.01
    16   1    -0.01  -0.00  -0.00     0.03   0.05  -0.02    -0.02  -0.03  -0.06
    17   6     0.00   0.03   0.00    -0.04   0.01   0.04     0.01   0.00   0.02
    18   1    -0.01   0.00  -0.01    -0.05   0.08   0.00    -0.04  -0.02  -0.05
    19   6    -0.01  -0.00  -0.01    -0.06   0.07  -0.03    -0.01   0.00  -0.01
    20   1     0.03   0.00   0.02     0.15  -0.09   0.04    -0.00  -0.02  -0.01
    21   1     0.01   0.03   0.02     0.07  -0.01   0.08    -0.01  -0.02  -0.01
    22   1    -0.03  -0.01   0.00    -0.10   0.06   0.03    -0.04  -0.03  -0.06
    23  16    -0.02   0.06  -0.04    -0.03   0.16  -0.08     0.01   0.02  -0.02
    24   8    -0.00  -0.03   0.01     0.01  -0.06  -0.00     0.02  -0.01   0.01
    25   8     0.02  -0.01   0.03     0.06  -0.01   0.11    -0.00  -0.01   0.02
    26   6     0.01  -0.02   0.01     0.02  -0.05   0.00    -0.14  -0.05   0.22
    27   6     0.02  -0.03   0.01     0.03  -0.09   0.04     0.07   0.03  -0.14
    28   6     0.01  -0.04   0.01     0.02  -0.10   0.02     0.09   0.04  -0.14
    29   6     0.03  -0.02   0.01     0.08  -0.05  -0.01    -0.09  -0.05   0.15
    30   1     0.03  -0.03  -0.01     0.05  -0.08   0.00     0.20   0.08  -0.34
    31   6     0.01  -0.04  -0.02     0.03  -0.09  -0.05    -0.08  -0.05   0.15
    32   1     0.02  -0.03  -0.02     0.03  -0.09   0.00     0.20   0.06  -0.32
    33   6    -0.02   0.02   0.01    -0.05   0.03   0.05     0.11   0.06  -0.19
    34   1     0.05  -0.05  -0.03     0.14  -0.10  -0.12    -0.15  -0.08   0.25
    35   1     0.05  -0.05  -0.03     0.15  -0.12  -0.10    -0.15  -0.10   0.28
    36   6    -0.03   0.06  -0.00    -0.08   0.15   0.00     0.01   0.02  -0.03
    37   1    -0.03   0.06  -0.00    -0.05   0.11  -0.02    -0.20   0.28   0.07
    38   1    -0.03   0.06  -0.00    -0.08   0.16  -0.02    -0.01  -0.10   0.10
    39   1    -0.03   0.07  -0.00    -0.09   0.19  -0.02     0.04  -0.20   0.08
    40   7    -0.00  -0.03  -0.02    -0.11  -0.11  -0.05    -0.03   0.00  -0.02
    41   1    -0.01  -0.02  -0.01    -0.03  -0.23  -0.18     0.01  -0.07  -0.06
    42   6    -0.01   0.01   0.06    -0.06  -0.05   0.21    -0.00  -0.00   0.01
    43   6    -0.06  -0.08  -0.02     0.03   0.03  -0.02     0.01   0.00  -0.01
    44   6    -0.18  -0.17   0.02     0.06   0.05  -0.02    -0.01   0.00  -0.00
    45   6     0.04   0.00  -0.01    -0.01   0.00   0.00    -0.00   0.00   0.01
    46   6    -0.13  -0.08   0.03     0.04   0.02  -0.01    -0.00  -0.00   0.01
    47   1    -0.20  -0.14  -0.05     0.06   0.04  -0.04    -0.01   0.00  -0.01
    48   6     0.04   0.21  -0.02    -0.01  -0.05   0.03    -0.00  -0.00  -0.01
    49   6    -0.15  -0.23   0.07     0.04   0.04   0.02    -0.00   0.01   0.00
    50   1    -0.07  -0.25   0.12     0.04   0.15   0.30     0.00   0.01   0.01
    51   6     0.19   0.06   0.00    -0.06  -0.02   0.00    -0.00  -0.00   0.00
    52   1     0.13   0.07   0.00    -0.03  -0.02   0.00     0.00  -0.00  -0.00
    53   1     0.21   0.10  -0.00    -0.07  -0.03   0.00     0.00  -0.00  -0.00
    54   1     0.24   0.12  -0.01    -0.07  -0.04   0.01    -0.01  -0.01  -0.00
    55   6    -0.07   0.08  -0.01     0.02  -0.02   0.00     0.00  -0.01   0.00
    56   1     0.12   0.02  -0.02    -0.04  -0.00   0.01    -0.00  -0.00  -0.00
    57   1     0.08   0.09  -0.01    -0.04  -0.01   0.00     0.01  -0.02  -0.00
    58   1    -0.16   0.37  -0.06     0.05  -0.10   0.02     0.00  -0.01  -0.01
    59   6     0.08  -0.11   0.03    -0.03   0.03  -0.01     0.01  -0.00   0.00
    60   1     0.17  -0.15   0.09    -0.08   0.06  -0.02    -0.00  -0.00   0.00
    61   1     0.10  -0.08   0.05    -0.02  -0.01   0.00     0.01  -0.01   0.01
    62   1     0.04  -0.00   0.02    -0.03   0.01   0.00     0.00  -0.00   0.00
    63   8     0.14   0.21  -0.08    -0.04  -0.06   0.02     0.00  -0.00   0.01
                     61                     62                     63
                      A                      A                      A
 Frequencies --    713.1606               723.9815               741.5478
 Red. masses --      1.9565                 2.1365                 3.5989
 Frc consts  --      0.5863                 0.6598                 1.1660
 IR Inten    --     23.5858                12.5221                 0.3802
  Atom  AN      X      Y      Z        X      Y      Z        X      Y      Z
     1   6     0.03   0.03  -0.11    -0.01  -0.02   0.07    -0.05   0.11   0.02
     2   6    -0.03   0.02   0.10     0.02  -0.02  -0.05    -0.05   0.09   0.01
     3   6     0.01   0.01  -0.11    -0.00  -0.01   0.07    -0.08  -0.00  -0.03
     4   6    -0.03  -0.03   0.05     0.02   0.02  -0.05    -0.05  -0.13   0.00
     5   6     0.03  -0.02  -0.12    -0.02   0.01   0.07    -0.06  -0.13  -0.00
     6   6     0.01  -0.01   0.06    -0.02   0.00  -0.04     0.11   0.01   0.07
     7   1    -0.07  -0.01   0.11     0.06   0.00  -0.08    -0.09   0.05  -0.33
     8   1    -0.09  -0.01   0.36     0.05  -0.00  -0.21     0.09   0.06  -0.17
     9   1    -0.12  -0.07   0.42     0.06   0.03  -0.21     0.08  -0.06  -0.18
    10   1    -0.09  -0.03   0.17     0.05   0.02  -0.09    -0.13  -0.01  -0.35
    11   1    -0.10  -0.03   0.46     0.05   0.02  -0.27     0.20   0.05  -0.27
    12   6    -0.02  -0.04  -0.04    -0.07  -0.05  -0.11     0.04  -0.05   0.02
    13   6     0.03   0.01   0.02     0.02   0.03   0.08     0.05  -0.01  -0.05
    14   6     0.00   0.00   0.03     0.05   0.05   0.08    -0.05  -0.06   0.05
    15   6    -0.01  -0.03  -0.06    -0.07  -0.06  -0.10     0.07   0.01  -0.04
    16   1     0.11   0.12   0.20     0.19   0.18   0.36     0.03   0.07   0.03
    17   6    -0.04  -0.03  -0.04    -0.05  -0.05  -0.11    -0.04  -0.07   0.06
    18   1     0.11   0.12   0.21     0.20   0.18   0.33    -0.05   0.00   0.04
    19   6     0.00   0.03   0.02     0.04   0.01   0.05    -0.05   0.06  -0.03
    20   1     0.08   0.03   0.09     0.06   0.10   0.13     0.13  -0.04   0.08
    21   1     0.08   0.04   0.11     0.07   0.08   0.12     0.10  -0.10   0.10
    22   1     0.12   0.14   0.24     0.24   0.21   0.41     0.00   0.10   0.04
    23  16    -0.00   0.01  -0.02    -0.00   0.01  -0.00    -0.02  -0.01  -0.00
    24   8     0.00  -0.00   0.01    -0.00  -0.01   0.00    -0.02  -0.01   0.02
    25   8    -0.00  -0.01  -0.00     0.00  -0.00   0.00    -0.00  -0.01  -0.02
    26   6    -0.02  -0.01   0.03    -0.00  -0.00   0.00     0.00  -0.00   0.00
    27   6     0.01   0.00  -0.02     0.00  -0.00  -0.00     0.01  -0.00   0.01
    28   6     0.01   0.00  -0.01     0.00  -0.00  -0.00    -0.00   0.00   0.00
    29   6    -0.01  -0.01   0.02     0.00  -0.00   0.00     0.01  -0.00   0.00
    30   1     0.03   0.01  -0.05     0.01  -0.01  -0.00     0.01  -0.00   0.00
    31   6    -0.01  -0.01   0.02     0.00  -0.00   0.00    -0.00   0.00   0.00
    32   1     0.03   0.01  -0.04     0.01  -0.00  -0.01     0.01   0.01  -0.01
    33   6     0.01   0.01  -0.02     0.00   0.00  -0.00    -0.00  -0.00  -0.00
    34   1    -0.02  -0.02   0.03     0.00  -0.01  -0.00     0.01  -0.01  -0.01
    35   1    -0.02  -0.01   0.03     0.00  -0.01   0.00     0.00   0.01  -0.01
    36   6    -0.00   0.01  -0.00    -0.00   0.01  -0.00     0.00   0.00  -0.00
    37   1    -0.03   0.04   0.01    -0.01   0.01   0.00    -0.00   0.00   0.00
    38   1    -0.00  -0.01   0.01    -0.00   0.01   0.00    -0.00   0.00   0.00
    39   1     0.00  -0.02   0.01    -0.00   0.00   0.00     0.00  -0.00   0.00
    40   7     0.02   0.01   0.01     0.00   0.00   0.00     0.12   0.09   0.00
    41   1    -0.02   0.10   0.05     0.03  -0.05  -0.03     0.04   0.29   0.09
    42   6     0.00   0.01   0.02    -0.00  -0.00  -0.01     0.04   0.07  -0.01
    43   6    -0.00  -0.00  -0.00     0.00   0.00   0.00     0.05   0.02  -0.02
    44   6     0.01  -0.00  -0.01    -0.01   0.00   0.00    -0.13   0.03   0.01
    45   6     0.00  -0.00  -0.00    -0.00   0.00   0.00    -0.02   0.04  -0.01
    46   6     0.00   0.00  -0.01    -0.00  -0.00   0.01    -0.02  -0.03  -0.00
    47   1     0.01  -0.00   0.00    -0.01   0.00   0.01    -0.13   0.02  -0.04
    48   6    -0.00  -0.00   0.01     0.00   0.00  -0.01    -0.01   0.02   0.00
    49   6     0.00  -0.01   0.01    -0.00   0.00  -0.01    -0.02   0.12  -0.01
    50   1     0.00   0.02   0.10    -0.00   0.02   0.03     0.00   0.09  -0.07
    51   6     0.00   0.00   0.00    -0.00  -0.00   0.00    -0.04  -0.00  -0.00
    52   1    -0.00   0.00   0.00     0.00  -0.00  -0.00     0.07  -0.01   0.01
    53   1     0.00   0.00   0.00     0.01   0.00  -0.00    -0.09  -0.06   0.01
    54   1     0.01   0.01   0.00    -0.01  -0.00  -0.00    -0.09  -0.06   0.02
    55   6    -0.00   0.01  -0.00     0.00  -0.00   0.00     0.06  -0.09   0.02
    56   1    -0.00   0.00   0.00    -0.00   0.00  -0.01     0.09  -0.10   0.01
    57   1    -0.01   0.01   0.00     0.01  -0.02  -0.00     0.07  -0.08   0.02
    58   1    -0.00   0.00   0.00    -0.00   0.00  -0.01     0.05  -0.06   0.02
    59   6    -0.01   0.01  -0.00     0.00  -0.00   0.00     0.08  -0.07   0.03
    60   1    -0.01   0.01  -0.00     0.01  -0.01  -0.00     0.02  -0.04   0.03
    61   1    -0.01   0.01  -0.00     0.00  -0.00   0.00     0.10  -0.13   0.06
    62   1    -0.01   0.01  -0.00     0.01  -0.01   0.00     0.06  -0.09   0.05
    63   8    -0.00  -0.01  -0.00     0.00   0.01   0.00     0.03   0.01  -0.01
                     64                     65                     66
                      A                      A                      A
 Frequencies --    742.9125               780.0714               787.4270
 Red. masses --      3.7563                 2.4584                 2.6364
 Frc consts  --      1.2215                 0.8814                 0.9631
 IR Inten    --     13.5872                 1.8659                19.2153
  Atom  AN      X      Y      Z        X      Y      Z        X      Y      Z
     1   6    -0.04   0.07   0.03     0.00   0.00  -0.00     0.02  -0.04  -0.00
     2   6    -0.02   0.05  -0.01     0.01  -0.01  -0.02    -0.00  -0.02   0.07
     3   6    -0.05  -0.00  -0.00    -0.01  -0.00   0.04     0.06   0.01  -0.17
     4   6    -0.03  -0.08  -0.00     0.01  -0.01  -0.02    -0.01   0.04   0.07
     5   6    -0.04  -0.08   0.02    -0.00  -0.00  -0.01     0.02   0.04   0.01
     6   6     0.06   0.00   0.04     0.01   0.01  -0.03    -0.06  -0.01   0.09
     7   1    -0.04   0.04  -0.23    -0.03  -0.00   0.14     0.17   0.00  -0.40
     8   1     0.07   0.03  -0.14     0.00  -0.02   0.01    -0.00   0.00  -0.03
     9   1     0.07  -0.03  -0.18    -0.02  -0.02   0.04     0.02   0.05  -0.06
    10   1    -0.06  -0.00  -0.27    -0.06  -0.01   0.15     0.20   0.05  -0.41
    11   1     0.14   0.03  -0.24    -0.04  -0.00   0.15     0.09   0.02  -0.43
    12   6     0.02  -0.01   0.01    -0.08  -0.07  -0.13     0.03   0.03   0.05
    13   6     0.01  -0.01  -0.02     0.03   0.02   0.05    -0.01  -0.00  -0.01
    14   6    -0.01  -0.02   0.02     0.03   0.03   0.07     0.00   0.01  -0.04
    15   6     0.02   0.00  -0.01     0.01   0.00  -0.00    -0.01  -0.00   0.00
    16   1     0.00   0.03   0.02    -0.03  -0.02  -0.04     0.02  -0.00   0.01
    17   6    -0.01  -0.02   0.02    -0.00  -0.00   0.00     0.00   0.02  -0.02
    18   1    -0.02  -0.01   0.00    -0.05  -0.05  -0.07     0.03   0.03   0.01
    19   6    -0.02   0.02  -0.01     0.04   0.05   0.08    -0.01  -0.03  -0.03
    20   1     0.05  -0.01   0.04    -0.19  -0.19  -0.36     0.06   0.08   0.14
    21   1     0.03  -0.04   0.02    -0.20  -0.21  -0.37     0.06   0.12   0.13
    22   1    -0.00   0.03   0.01    -0.21  -0.19  -0.37     0.08   0.07   0.16
    23  16    -0.01  -0.00  -0.02    -0.00   0.00  -0.01     0.01   0.01  -0.01
    24   8    -0.01  -0.00   0.02    -0.00  -0.00   0.01     0.01   0.00  -0.01
    25   8    -0.01  -0.01  -0.02    -0.00  -0.01  -0.01     0.00  -0.00   0.02
    26   6    -0.01  -0.00   0.01    -0.00   0.00   0.00    -0.01   0.01   0.00
    27   6     0.00  -0.01  -0.00     0.00  -0.00  -0.00    -0.01  -0.01  -0.01
    28   6     0.01   0.01  -0.01     0.01   0.00  -0.00     0.02  -0.00  -0.00
    29   6     0.00  -0.01   0.01    -0.00  -0.00   0.00    -0.01  -0.01  -0.00
    30   1     0.01  -0.00  -0.02     0.01  -0.01  -0.00     0.01  -0.02  -0.02
    31   6    -0.00   0.00   0.01     0.00   0.00   0.00     0.01  -0.00   0.00
    32   1     0.01   0.01  -0.00     0.00  -0.01   0.00     0.00  -0.02   0.02
    33   6     0.00   0.00  -0.01     0.00  -0.00  -0.00     0.00  -0.00   0.00
    34   1     0.01  -0.01  -0.00     0.00  -0.00  -0.00     0.00   0.01  -0.02
    35   1    -0.01   0.00   0.01    -0.00   0.00   0.00    -0.00  -0.00   0.02
    36   6    -0.00   0.00  -0.00    -0.00   0.01  -0.00    -0.01   0.01  -0.00
    37   1    -0.01   0.01   0.00    -0.00   0.01   0.00    -0.01   0.02  -0.00
    38   1    -0.00   0.01   0.01    -0.00   0.01   0.00    -0.01   0.01   0.00
    39   1     0.00  -0.00   0.00    -0.00   0.00   0.00    -0.01   0.01  -0.00
    40   7     0.09   0.05   0.04     0.03   0.02   0.01    -0.07  -0.06   0.01
    41   1     0.00   0.23   0.14     0.02   0.05   0.02     0.00  -0.21  -0.07
    42   6     0.03   0.04  -0.01    -0.00   0.02   0.01    -0.04  -0.03   0.04
    43   6    -0.07  -0.03   0.03     0.00   0.02   0.04     0.01   0.03   0.04
    44   6     0.22  -0.04   0.02    -0.02   0.02   0.06    -0.01   0.02   0.05
    45   6     0.03  -0.08  -0.02     0.00  -0.01  -0.09     0.00  -0.01  -0.08
    46   6     0.03   0.04  -0.05    -0.01  -0.02  -0.09    -0.00  -0.02  -0.08
    47   1     0.22  -0.04   0.00    -0.03   0.01  -0.05    -0.02   0.02  -0.00
    48   6     0.02  -0.01   0.09     0.01   0.06   0.20     0.00   0.05   0.18
    49   6     0.04  -0.20   0.04    -0.00   0.01  -0.03    -0.00   0.01  -0.06
    50   1     0.00  -0.16   0.10     0.01  -0.01  -0.09     0.01   0.02   0.00
    51   6     0.06   0.00  -0.00    -0.02  -0.00  -0.02    -0.02  -0.00  -0.02
    52   1    -0.12   0.03   0.01     0.02   0.02   0.06     0.03   0.02   0.05
    53   1     0.07   0.09   0.00    -0.17  -0.04   0.04    -0.16  -0.05   0.04
    54   1     0.19   0.12  -0.01     0.09   0.03   0.05     0.07   0.02   0.04
    55   6    -0.09   0.14  -0.04     0.01  -0.02  -0.02     0.01  -0.02  -0.02
    56   1    -0.09   0.11   0.01     0.11  -0.12   0.08     0.09  -0.10   0.06
    57   1    -0.17   0.20  -0.02    -0.09   0.13   0.03    -0.08   0.11   0.02
    58   1    -0.07   0.10   0.01     0.04  -0.02   0.08     0.03  -0.02   0.06
    59   6    -0.14   0.12  -0.04     0.01  -0.01   0.01     0.02  -0.01   0.01
    60   1    -0.04   0.07  -0.04     0.00  -0.01  -0.01    -0.01  -0.01  -0.02
    61   1    -0.16   0.22  -0.08    -0.01   0.00  -0.01    -0.02  -0.00  -0.02
    62   1    -0.11   0.17  -0.08     0.04  -0.05   0.01     0.05  -0.08   0.01
    63   8    -0.05  -0.03  -0.01     0.00  -0.01  -0.05     0.00  -0.02  -0.04
                     67                     68                     69
                      A                      A                      A
 Frequencies --    788.3630               810.5394               827.2809
 Red. masses --      2.1418                 3.8235                 1.7008
 Frc consts  --      0.7843                 1.4800                 0.6858
 IR Inten    --     26.7760                41.7848                15.6376
  Atom  AN      X      Y      Z        X      Y      Z        X      Y      Z
     1   6    -0.01   0.02  -0.00    -0.02   0.02  -0.00    -0.01   0.01  -0.00
     2   6     0.01   0.01  -0.05    -0.01   0.02  -0.01    -0.00   0.01  -0.00
     3   6    -0.04  -0.01   0.13    -0.01  -0.00   0.04    -0.00  -0.00   0.00
     4   6     0.01  -0.01  -0.05     0.00  -0.00  -0.01    -0.00   0.00   0.00
     5   6    -0.01  -0.01  -0.00     0.00  -0.01   0.00    -0.00  -0.00   0.00
     6   6     0.03   0.01  -0.07     0.01  -0.00  -0.01     0.00  -0.00   0.00
     7   1    -0.11  -0.01   0.29    -0.06   0.00   0.05    -0.02   0.00   0.01
     8   1    -0.01   0.01   0.02     0.01   0.01  -0.01     0.00   0.00   0.01
     9   1    -0.00  -0.01   0.05     0.01   0.00  -0.01     0.01   0.01  -0.02
    10   1    -0.11  -0.03   0.31    -0.02  -0.01   0.06     0.01   0.00  -0.04
    11   1    -0.08  -0.02   0.31    -0.01  -0.03   0.07     0.01  -0.01  -0.02
    12   6     0.06   0.06   0.10     0.01   0.02   0.03     0.00  -0.00   0.00
    13   6    -0.02  -0.02  -0.03    -0.04  -0.01  -0.00    -0.02  -0.00   0.00
    14   6    -0.03  -0.03  -0.03     0.03   0.04  -0.04     0.02   0.02  -0.02
    15   6    -0.01   0.00  -0.01    -0.05   0.00   0.03    -0.02   0.00   0.01
    16   1     0.02   0.01   0.02    -0.03   0.02   0.04    -0.01   0.02   0.03
    17   6    -0.00  -0.01  -0.00     0.02   0.05  -0.03     0.01   0.03  -0.02
    18   1     0.02   0.01   0.06     0.02   0.01  -0.06     0.01   0.01  -0.03
    19   6    -0.04  -0.03  -0.06     0.01  -0.04   0.00     0.01  -0.01   0.01
    20   1     0.16   0.15   0.27    -0.04   0.07   0.04    -0.02   0.02   0.00
    21   1     0.17   0.14   0.29    -0.05   0.10  -0.02    -0.04   0.03  -0.03
    22   1     0.18   0.18   0.30     0.02  -0.03   0.03    -0.01  -0.03  -0.01
    23  16     0.00  -0.01   0.02    -0.00   0.01  -0.06    -0.01   0.03  -0.05
    24   8    -0.00   0.00  -0.00     0.02   0.01   0.01     0.00  -0.01   0.01
    25   8     0.00   0.01  -0.00    -0.04  -0.04  -0.04    -0.01  -0.02  -0.00
    26   6     0.00  -0.01   0.00    -0.04   0.11  -0.02    -0.03  -0.04   0.07
    27   6     0.01   0.01   0.00    -0.09  -0.13  -0.08     0.06   0.04  -0.03
    28   6    -0.01   0.01  -0.02     0.14   0.00   0.11    -0.01   0.01  -0.07
    29   6     0.00   0.01  -0.00    -0.09  -0.09  -0.06     0.07   0.03  -0.03
    30   1    -0.03   0.01   0.03     0.10  -0.22  -0.10    -0.21  -0.03   0.33
    31   6    -0.00   0.00  -0.01     0.10   0.03   0.09    -0.00  -0.00  -0.08
    32   1    -0.04   0.00   0.04     0.22  -0.14  -0.03    -0.22  -0.02   0.28
    33   6    -0.00   0.00   0.00     0.02  -0.03   0.00    -0.03   0.01   0.03
    34   1    -0.02  -0.01   0.04    -0.02   0.03  -0.17    -0.21  -0.15   0.44
    35   1    -0.03  -0.01   0.04     0.11   0.13  -0.06    -0.22  -0.18   0.37
    36   6     0.01  -0.01   0.00    -0.07   0.15  -0.01     0.00  -0.04   0.02
    37   1     0.02  -0.03  -0.00    -0.12   0.20   0.01     0.14  -0.19  -0.04
    38   1     0.01  -0.01  -0.01    -0.08   0.14   0.02     0.02   0.04  -0.08
    39   1     0.01  -0.00  -0.00    -0.09   0.12   0.01     0.01   0.10  -0.05
    40   7    -0.00   0.02  -0.01     0.06  -0.08   0.21     0.02  -0.04   0.09
    41   1     0.07  -0.12  -0.07    -0.17   0.29   0.50    -0.10   0.14   0.24
    42   6     0.02  -0.01  -0.08     0.02  -0.07  -0.03     0.01  -0.03   0.00
    43   6    -0.01   0.01   0.03     0.00  -0.00  -0.00     0.00   0.00  -0.00
    44   6    -0.01   0.00   0.05    -0.01   0.01   0.00    -0.01   0.00  -0.00
    45   6     0.00  -0.01  -0.06    -0.00   0.01  -0.00    -0.00   0.01  -0.00
    46   6    -0.01  -0.02  -0.06    -0.00   0.00   0.00     0.00   0.00   0.00
    47   1    -0.01  -0.02  -0.03    -0.01  -0.00   0.03    -0.00   0.00   0.02
    48   6     0.01   0.04   0.13    -0.01  -0.01  -0.01    -0.01  -0.01  -0.01
    49   6     0.00   0.01  -0.04     0.01   0.04  -0.04     0.00   0.01  -0.02
    50   1    -0.01  -0.07  -0.26    -0.01  -0.02  -0.21    -0.00   0.00  -0.05
    51   6    -0.00  -0.00  -0.01    -0.00   0.00  -0.00     0.00   0.00  -0.00
    52   1    -0.00   0.02   0.04     0.02  -0.00  -0.00     0.02  -0.00  -0.00
    53   1    -0.10  -0.02   0.03    -0.00  -0.01  -0.00    -0.00  -0.01   0.00
    54   1     0.08   0.03   0.03    -0.02  -0.02   0.00    -0.01  -0.01   0.00
    55   6     0.00  -0.01  -0.02     0.01  -0.01   0.00     0.00  -0.00   0.00
    56   1     0.07  -0.08   0.05    -0.00  -0.00  -0.01    -0.01   0.00  -0.00
    57   1    -0.07   0.10   0.02     0.01  -0.02  -0.00     0.00  -0.02  -0.00
    58   1     0.01   0.01   0.05     0.01  -0.02  -0.01     0.00  -0.01  -0.00
    59   6     0.00  -0.01   0.01     0.01  -0.01   0.00     0.01  -0.01   0.00
    60   1     0.02  -0.02  -0.00     0.01  -0.01   0.01     0.00  -0.00   0.00
    61   1    -0.01   0.02  -0.01     0.02  -0.01   0.01     0.01  -0.01   0.00
    62   1     0.02  -0.02  -0.00     0.00   0.00   0.00     0.00  -0.00   0.00
    63   8     0.00  -0.00  -0.03     0.00  -0.00   0.00     0.00  -0.00   0.00
                     70                     71                     72
                      A                      A                      A
 Frequencies --    831.7930               855.6881               865.1189
 Red. masses --      2.5844                 1.2589                 1.2535
 Frc consts  --      1.0535                 0.5431                 0.5527
 IR Inten    --    128.6078                12.3984                 2.7352
  Atom  AN      X      Y      Z        X      Y      Z        X      Y      Z
     1   6    -0.01   0.01  -0.00    -0.00  -0.00   0.01     0.02  -0.00  -0.07
     2   6    -0.00   0.01  -0.01    -0.00  -0.00   0.00     0.01  -0.00  -0.03
     3   6    -0.00  -0.00   0.01    -0.00   0.00   0.00     0.00   0.00  -0.01
     4   6    -0.00   0.00  -0.00     0.00   0.00  -0.01    -0.02  -0.01   0.07
     5   6     0.00  -0.00   0.00     0.00   0.00  -0.01    -0.01  -0.00   0.05
     6   6     0.00  -0.00  -0.00     0.00   0.00  -0.00    -0.00   0.00  -0.01
     7   1    -0.03   0.00  -0.00     0.02   0.00  -0.04    -0.12  -0.03   0.46
     8   1     0.00   0.01   0.02     0.00   0.00  -0.02    -0.08  -0.03   0.33
     9   1     0.01   0.01  -0.01    -0.01  -0.00   0.03     0.11   0.05  -0.40
    10   1     0.00  -0.00  -0.01    -0.01  -0.00   0.04     0.11   0.04  -0.37
    11   1     0.00  -0.02  -0.00    -0.00   0.00   0.00    -0.03   0.00   0.07
    12   6     0.01   0.00   0.01    -0.00  -0.00  -0.00    -0.00  -0.00  -0.01
    13   6    -0.02  -0.00   0.00     0.00  -0.00  -0.00    -0.01  -0.01  -0.03
    14   6     0.02   0.03  -0.03    -0.00  -0.00   0.00     0.02   0.02   0.04
    15   6    -0.03   0.00   0.02     0.00  -0.00  -0.00    -0.01  -0.02  -0.04
    16   1    -0.02   0.01   0.02     0.00   0.00   0.00     0.12   0.10   0.18
    17   6     0.01   0.04  -0.02    -0.00  -0.00   0.00     0.02   0.01   0.03
    18   1     0.02   0.01  -0.04    -0.00  -0.00   0.01    -0.14  -0.13  -0.23
    19   6     0.01  -0.02   0.00    -0.00   0.00   0.00    -0.01  -0.00  -0.01
    20   1    -0.03   0.04   0.02     0.00  -0.01  -0.00     0.14   0.11   0.23
    21   1    -0.04   0.07  -0.02     0.00  -0.01  -0.00    -0.11  -0.12  -0.20
    22   1     0.00  -0.02   0.01    -0.00  -0.00  -0.01     0.02   0.02   0.04
    23  16    -0.02   0.05  -0.06     0.00  -0.01   0.01     0.00  -0.00   0.00
    24   8    -0.01  -0.01   0.01    -0.00   0.00  -0.00     0.00   0.00  -0.00
    25   8     0.00  -0.02  -0.00    -0.00   0.00  -0.00     0.00   0.00   0.00
    26   6     0.06  -0.05  -0.04    -0.01   0.00   0.01     0.00   0.00  -0.00
    27   6     0.03   0.07   0.11    -0.04  -0.03   0.05    -0.00  -0.00   0.00
    28   6    -0.11  -0.01  -0.04     0.05   0.02  -0.05     0.00   0.00  -0.00
    29   6     0.04   0.03   0.12    -0.04  -0.02   0.05    -0.00  -0.00   0.00
    30   1     0.17   0.26  -0.35     0.21   0.08  -0.36     0.02   0.01  -0.03
    31   6    -0.10  -0.04  -0.02     0.05   0.03  -0.07     0.00   0.00  -0.00
    32   1    -0.00   0.15  -0.21    -0.25  -0.10   0.43    -0.01  -0.01   0.02
    33   6     0.01   0.04  -0.03    -0.00  -0.00   0.01     0.00  -0.00  -0.00
    34   1     0.33   0.10  -0.37     0.21   0.12  -0.38     0.01   0.01  -0.03
    35   1     0.11   0.02  -0.29    -0.26  -0.17   0.48    -0.01  -0.00   0.02
    36   6     0.05  -0.09  -0.01    -0.01   0.01  -0.00    -0.00   0.00  -0.00
    37   1    -0.03   0.03   0.04     0.01  -0.01   0.00    -0.00   0.00   0.00
    38   1     0.04  -0.15   0.07    -0.01   0.02  -0.00    -0.00   0.00   0.00
    39   1     0.09  -0.21   0.05    -0.00   0.02  -0.01    -0.00  -0.00   0.00
    40   7     0.04  -0.06   0.14    -0.00   0.01  -0.01    -0.00  -0.00  -0.00
    41   1    -0.09   0.15   0.30    -0.00   0.00  -0.01     0.01  -0.02  -0.01
    42   6     0.01  -0.06  -0.00    -0.00   0.01   0.00    -0.01   0.01   0.01
    43   6     0.00   0.00   0.00    -0.00  -0.00  -0.00     0.00  -0.00  -0.00
    44   6    -0.01   0.00   0.00    -0.00  -0.00  -0.00    -0.00  -0.00   0.00
    45   6    -0.00   0.00  -0.01    -0.00   0.00   0.00    -0.00   0.00   0.00
    46   6    -0.00   0.00  -0.00     0.00   0.00   0.00     0.00   0.00  -0.00
    47   1    -0.00  -0.00   0.02    -0.00   0.00  -0.00    -0.00  -0.01  -0.04
    48   6    -0.00  -0.00   0.01    -0.00  -0.00  -0.01     0.00  -0.00  -0.00
    49   6     0.00   0.02  -0.03    -0.00  -0.00   0.00     0.00   0.00   0.01
    50   1    -0.00  -0.01  -0.11    -0.00  -0.00  -0.00    -0.00  -0.03  -0.08
    51   6    -0.00   0.00  -0.00     0.00   0.00   0.00     0.00   0.00  -0.00
    52   1     0.01  -0.00   0.00     0.01  -0.00  -0.00     0.00   0.00   0.00
    53   1    -0.01  -0.01   0.00     0.00  -0.00  -0.00    -0.00  -0.00   0.00
    54   1    -0.01  -0.01   0.00    -0.01  -0.00  -0.00    -0.00  -0.00   0.00
    55   6     0.01  -0.01   0.00     0.00   0.00   0.00    -0.00   0.00  -0.00
    56   1     0.00  -0.00  -0.00    -0.01   0.00   0.00     0.00  -0.01   0.01
    57   1     0.00  -0.00   0.00    -0.00  -0.00  -0.00    -0.01   0.01   0.00
    58   1     0.01  -0.01  -0.00     0.00  -0.00  -0.00     0.00  -0.00   0.01
    59   6     0.01  -0.01   0.00     0.00  -0.00   0.00    -0.00  -0.00  -0.00
    60   1     0.01  -0.00   0.00     0.00  -0.00   0.00    -0.00   0.00   0.00
    61   1     0.01  -0.01   0.00     0.00  -0.00   0.00     0.01  -0.00   0.01
    62   1     0.00  -0.00   0.00     0.00  -0.00   0.00    -0.01   0.01   0.00
    63   8     0.00  -0.01   0.00     0.00   0.00   0.00    -0.00  -0.00   0.00
                     73                     74                     75
                      A                      A                      A
 Frequencies --    874.1105               889.9399               909.9770
 Red. masses --      1.2426                 1.4171                 2.1760
 Frc consts  --      0.5594                 0.6613                 1.0616
 IR Inten    --      2.1666                11.7025                 7.1832
  Atom  AN      X      Y      Z        X      Y      Z        X      Y      Z
     1   6    -0.01  -0.01   0.05    -0.01   0.01   0.01     0.01  -0.01   0.00
     2   6    -0.01  -0.01   0.03    -0.00   0.00  -0.00     0.00  -0.01   0.00
     3   6     0.00   0.00  -0.01    -0.01  -0.00   0.02    -0.01   0.00  -0.00
     4   6     0.01   0.01  -0.03     0.00   0.00  -0.00     0.00   0.00   0.00
     5   6     0.02   0.01  -0.04     0.00  -0.00  -0.01     0.01   0.01   0.00
     6   6     0.00  -0.00   0.00     0.01  -0.00  -0.01    -0.00   0.00  -0.00
     7   1     0.10   0.02  -0.31     0.00   0.01  -0.05     0.02  -0.00   0.01
     8   1     0.06   0.01  -0.21     0.02   0.01  -0.07     0.01  -0.01  -0.02
     9   1    -0.08  -0.03   0.23    -0.00   0.00   0.01     0.01   0.01  -0.01
    10   1    -0.07  -0.02   0.28    -0.03  -0.01   0.08     0.01   0.00   0.01
    11   1     0.01  -0.00  -0.03    -0.01  -0.01   0.05    -0.01   0.01   0.02
    12   6    -0.00   0.00  -0.00     0.02  -0.00   0.01    -0.01   0.01  -0.00
    13   6    -0.02  -0.02  -0.04    -0.02  -0.01  -0.01     0.01   0.00   0.00
    14   6     0.02   0.02   0.04     0.00   0.01   0.00     0.00  -0.00   0.01
    15   6    -0.02  -0.03  -0.05    -0.03  -0.01  -0.01     0.02   0.00   0.00
    16   1     0.16   0.14   0.26     0.05   0.06   0.12    -0.02  -0.03  -0.06
    17   6     0.03   0.03   0.05     0.02   0.02   0.02    -0.01  -0.02  -0.01
    18   1    -0.17  -0.17  -0.28    -0.06  -0.03  -0.10    -0.00  -0.03   0.00
    19   6    -0.01   0.00  -0.01     0.01  -0.01  -0.00    -0.01   0.00  -0.00
    20   1     0.19   0.16   0.32     0.06   0.10   0.15    -0.01  -0.05  -0.06
    21   1    -0.18  -0.17  -0.32    -0.10  -0.08  -0.17     0.05   0.03   0.08
    22   1     0.01   0.01   0.03     0.01  -0.00  -0.01     0.01   0.02   0.04
    23  16    -0.00   0.00  -0.00    -0.00  -0.00   0.00     0.00   0.00  -0.00
    24   8    -0.00  -0.00  -0.00    -0.00  -0.00   0.00    -0.00  -0.00   0.00
    25   8     0.00   0.00   0.00     0.00   0.00  -0.00    -0.00  -0.00  -0.00
    26   6     0.00  -0.00   0.00     0.00  -0.00  -0.00     0.00  -0.00  -0.00
    27   6     0.00   0.00  -0.00    -0.00  -0.00   0.00     0.00   0.00  -0.00
    28   6    -0.00  -0.00   0.00     0.00   0.00   0.00    -0.00   0.00  -0.00
    29   6     0.00   0.00  -0.00    -0.00  -0.00   0.00     0.00   0.00  -0.00
    30   1    -0.01  -0.00   0.02    -0.00  -0.00   0.00    -0.01  -0.00   0.01
    31   6    -0.00  -0.00   0.00    -0.00   0.00   0.00    -0.00  -0.00   0.00
    32   1     0.01   0.00  -0.02     0.00  -0.00  -0.00     0.00   0.01  -0.01
    33   6     0.00   0.00   0.00    -0.00  -0.00  -0.00     0.00   0.00  -0.00
    34   1    -0.01  -0.01   0.02     0.00   0.00  -0.00    -0.00  -0.00   0.01
    35   1     0.01   0.00  -0.02     0.00   0.01  -0.01     0.01   0.01  -0.03
    36   6     0.00  -0.00   0.00     0.00   0.00  -0.00     0.00  -0.00  -0.00
    37   1     0.00  -0.00  -0.00    -0.00   0.00   0.00    -0.00   0.00   0.00
    38   1     0.00  -0.00  -0.00    -0.00   0.00   0.00     0.00  -0.00   0.00
    39   1    -0.00   0.00  -0.00     0.00  -0.00   0.00     0.00  -0.00   0.00
    40   7    -0.01  -0.01   0.00     0.01   0.02  -0.00     0.01  -0.00   0.00
    41   1     0.01  -0.05  -0.02     0.02  -0.00  -0.01    -0.01  -0.01   0.04
    42   6    -0.01   0.01   0.01     0.02  -0.02  -0.04    -0.02   0.02  -0.00
    43   6     0.00  -0.00  -0.00    -0.01   0.02   0.01    -0.02   0.03  -0.02
    44   6    -0.00  -0.00   0.03     0.02   0.01  -0.09     0.07   0.05   0.05
    45   6     0.00  -0.01   0.01    -0.02   0.04  -0.02    -0.08   0.12  -0.03
    46   6     0.00  -0.00   0.00    -0.00   0.01  -0.01     0.04   0.04  -0.00
    47   1    -0.01  -0.04  -0.19     0.03   0.19   0.59     0.01   0.16  -0.50
    48   6     0.01  -0.01  -0.02    -0.04   0.01   0.05    -0.11  -0.02  -0.03
    49   6     0.01   0.01   0.02    -0.04  -0.06  -0.03    -0.09  -0.12   0.03
    50   1     0.01  -0.08  -0.22    -0.06   0.17   0.56    -0.20  -0.18  -0.22
    51   6    -0.00  -0.00   0.00     0.03   0.03  -0.01     0.09   0.09  -0.01
    52   1    -0.03  -0.00  -0.00     0.18   0.01   0.02     0.54   0.03   0.02
    53   1     0.01   0.01  -0.00    -0.04  -0.06   0.01    -0.03  -0.17   0.01
    54   1     0.00   0.01  -0.00    -0.03  -0.05   0.03    -0.13  -0.17   0.06
    55   6    -0.00   0.01  -0.01     0.02  -0.01   0.02     0.03  -0.01  -0.02
    56   1     0.01  -0.01   0.01    -0.05   0.06  -0.05    -0.01  -0.04   0.05
    57   1    -0.03   0.04   0.00     0.08  -0.12  -0.02    -0.09   0.07   0.01
    58   1     0.00   0.00   0.02     0.01  -0.04  -0.06     0.09  -0.13   0.07
    59   6    -0.01   0.00  -0.01     0.03  -0.02   0.02     0.05  -0.03   0.01
    60   1    -0.00   0.01   0.01    -0.01  -0.01  -0.03    -0.07   0.03   0.00
    61   1     0.01  -0.00   0.01    -0.00  -0.03  -0.01     0.06  -0.16   0.05
    62   1    -0.02   0.03  -0.00     0.06  -0.10   0.02     0.02  -0.12   0.06
    63   8    -0.00   0.01   0.00     0.00  -0.03  -0.00    -0.00  -0.08   0.03
                     76                     77                     78
                      A                      A                      A
 Frequencies --    935.8097               942.9991               950.3447
 Red. masses --      2.8803                 1.8466                 1.7475
 Frc consts  --      1.4862                 0.9675                 0.9299
 IR Inten    --     16.7560                 3.2895                 4.2065
  Atom  AN      X      Y      Z        X      Y      Z        X      Y      Z
     1   6    -0.06   0.08  -0.03     0.02  -0.04   0.03    -0.03   0.03   0.03
     2   6    -0.01   0.06   0.00    -0.00  -0.03   0.03    -0.02   0.02   0.05
     3   6     0.07  -0.01   0.02    -0.03   0.01  -0.03     0.05  -0.00  -0.05
     4   6    -0.01  -0.02  -0.01    -0.01   0.00   0.06    -0.02  -0.01   0.08
     5   6    -0.04  -0.06  -0.00     0.02   0.03  -0.01    -0.02  -0.03  -0.02
     6   6     0.02  -0.01   0.01     0.01   0.01  -0.06     0.03   0.00  -0.08
     7   1    -0.17   0.03   0.02     0.12  -0.00  -0.13    -0.00   0.03  -0.19
     8   1    -0.03   0.07  -0.01     0.08  -0.02  -0.22     0.07   0.05  -0.32
     9   1    -0.03  -0.03   0.01     0.11   0.06  -0.32     0.13   0.05  -0.44
    10   1    -0.05  -0.04  -0.09     0.00   0.01   0.13    -0.05  -0.03   0.04
    11   1     0.02  -0.04  -0.00    -0.10  -0.00   0.33    -0.13  -0.04   0.47
    12   6     0.05  -0.07   0.01    -0.03   0.02  -0.02     0.01  -0.04  -0.02
    13   6    -0.06  -0.02   0.02     0.04   0.03   0.02    -0.01   0.01   0.03
    14   6    -0.00   0.01  -0.03     0.02   0.01   0.05     0.01   0.02   0.01
    15   6    -0.11   0.02   0.04     0.05  -0.00  -0.00    -0.04   0.01   0.03
    16   1    -0.00   0.04   0.13    -0.11  -0.11  -0.24    -0.07  -0.05  -0.08
    17   6     0.03   0.07  -0.04    -0.02  -0.03   0.01     0.01   0.03  -0.03
    18   1     0.07   0.10   0.06    -0.15  -0.14  -0.23    -0.06  -0.02  -0.12
    19   6     0.03  -0.01   0.02    -0.03  -0.02  -0.05    -0.00  -0.02  -0.02
    20   1    -0.09   0.15   0.05    -0.00  -0.09  -0.08    -0.07   0.03  -0.03
    21   1    -0.05   0.07  -0.10     0.04  -0.01   0.07     0.00   0.06  -0.00
    22   1    -0.02  -0.06  -0.14     0.14   0.14   0.28     0.08   0.05   0.09
    23  16     0.00  -0.01   0.01    -0.00   0.00  -0.01     0.00   0.00   0.00
    24   8     0.01   0.00  -0.01    -0.00  -0.00   0.00     0.00  -0.00  -0.00
    25   8     0.01   0.01   0.01    -0.00  -0.01  -0.01     0.00   0.00   0.01
    26   6     0.00  -0.00   0.00    -0.00   0.00   0.00    -0.00  -0.00   0.00
    27   6    -0.00  -0.00  -0.00     0.00   0.00   0.00     0.00   0.00  -0.00
    28   6    -0.00  -0.00   0.00    -0.00   0.00   0.00    -0.00  -0.00   0.00
    29   6    -0.01  -0.00  -0.00     0.00  -0.00   0.00    -0.00  -0.00   0.00
    30   1     0.00  -0.00   0.00    -0.00   0.00   0.00    -0.00  -0.00   0.01
    31   6     0.00   0.00  -0.00    -0.00  -0.00  -0.00     0.00   0.00  -0.00
    32   1     0.00   0.00  -0.01     0.01   0.01  -0.01     0.00  -0.00  -0.01
    33   6     0.00  -0.00   0.00    -0.00   0.00  -0.00     0.00   0.00  -0.00
    34   1     0.00   0.01  -0.01    -0.00  -0.01   0.01     0.01   0.00  -0.01
    35   1    -0.01  -0.01   0.02    -0.00  -0.00   0.00    -0.01  -0.01   0.02
    36   6     0.00   0.00   0.00    -0.00  -0.00   0.00    -0.00  -0.00   0.00
    37   1    -0.00   0.00  -0.00     0.00  -0.00  -0.00     0.00  -0.00  -0.00
    38   1     0.00  -0.01  -0.00    -0.00   0.00  -0.00     0.00  -0.00  -0.00
    39   1    -0.01   0.01  -0.00     0.00  -0.00  -0.00    -0.00   0.00  -0.00
    40   7    -0.04   0.03  -0.04     0.03  -0.01   0.02    -0.03   0.01  -0.02
    41   1     0.05   0.01  -0.22    -0.05   0.05   0.14     0.03  -0.01  -0.11
    42   6     0.16  -0.11   0.01    -0.07   0.04  -0.01     0.06  -0.04   0.03
    43   6     0.04   0.06  -0.01     0.03   0.04  -0.01    -0.01  -0.03   0.00
    44   6    -0.09  -0.01   0.07    -0.07  -0.03  -0.01     0.05   0.03   0.03
    45   6     0.04   0.03   0.00     0.04   0.01   0.00    -0.02  -0.03   0.00
    46   6     0.07  -0.02   0.01     0.05  -0.02   0.01    -0.05   0.01  -0.00
    47   1    -0.14   0.03  -0.39    -0.08   0.04   0.09     0.05  -0.05  -0.23
    48   6     0.10  -0.05  -0.02     0.08  -0.03   0.01    -0.06   0.02  -0.02
    49   6    -0.03  -0.09  -0.02    -0.01  -0.05   0.00     0.01   0.04  -0.02
    50   1     0.14  -0.04   0.27     0.12  -0.06   0.11    -0.06   0.12   0.14
    51   6    -0.08  -0.00  -0.00    -0.07  -0.01  -0.00     0.04  -0.00   0.01
    52   1    -0.02  -0.01  -0.01    -0.07  -0.01  -0.00    -0.02   0.00  -0.01
    53   1    -0.08  -0.04  -0.00    -0.08  -0.02  -0.00     0.08   0.04  -0.01
    54   1    -0.14  -0.05  -0.00    -0.09  -0.03  -0.00     0.07   0.04  -0.01
    55   6    -0.01   0.09  -0.04    -0.01   0.08  -0.01     0.00  -0.07   0.01
    56   1    -0.22   0.09   0.06    -0.21   0.13   0.01     0.20  -0.13   0.01
    57   1    -0.27   0.16  -0.01    -0.17   0.05  -0.02     0.14  -0.03   0.02
    58   1     0.08  -0.17   0.08     0.05  -0.14   0.01    -0.05   0.13  -0.00
    59   6     0.04   0.01   0.01     0.03   0.01   0.00    -0.03  -0.00   0.00
    60   1    -0.17   0.11  -0.06    -0.14   0.09  -0.05     0.10  -0.07   0.02
    61   1     0.02  -0.15   0.02     0.00  -0.11   0.01    -0.03   0.11  -0.03
    62   1     0.06  -0.19   0.07     0.03  -0.13   0.05    -0.01   0.08  -0.04
    63   8    -0.02  -0.00   0.01    -0.02   0.00  -0.00     0.01   0.01   0.00
                     79                     80                     81
                      A                      A                      A
 Frequencies --    955.1454               967.6769               970.3105
 Red. masses --      1.5128                 1.3816                 1.2692
 Frc consts  --      0.8132                 0.7623                 0.7041
 IR Inten    --      6.2220                 8.5741                 2.2321
  Atom  AN      X      Y      Z        X      Y      Z        X      Y      Z
     1   6    -0.02   0.03  -0.02     0.02  -0.03  -0.02     0.01  -0.00  -0.01
     2   6     0.00   0.02  -0.03     0.00  -0.01  -0.01     0.00  -0.00   0.00
     3   6     0.03  -0.00   0.02    -0.04  -0.00   0.02    -0.01  -0.00   0.00
     4   6     0.00  -0.00  -0.04     0.01   0.01  -0.03     0.00   0.00  -0.01
     5   6    -0.01  -0.02  -0.01     0.02   0.02   0.01     0.00   0.00   0.00
     6   6    -0.00  -0.01   0.06    -0.01  -0.00   0.02    -0.00  -0.00   0.01
     7   1    -0.08   0.00   0.07     0.00  -0.02   0.13    -0.00  -0.00   0.05
     8   1    -0.06   0.01   0.18     0.00  -0.02   0.04     0.01  -0.00  -0.01
     9   1    -0.10  -0.06   0.22    -0.03  -0.00   0.14    -0.01  -0.00   0.05
    10   1    -0.04  -0.02   0.02     0.04   0.02  -0.01     0.01   0.00  -0.01
    11   1     0.10   0.00  -0.29     0.04   0.01  -0.13     0.01   0.00  -0.04
    12   6    -0.01  -0.05  -0.05    -0.00   0.02   0.00    -0.00   0.00  -0.00
    13   6     0.02   0.03   0.07     0.02   0.02   0.02     0.01   0.01   0.01
    14   6     0.03   0.03   0.05    -0.01  -0.01  -0.01    -0.00  -0.00  -0.00
    15   6    -0.03   0.01   0.03     0.01  -0.01  -0.02     0.00  -0.00  -0.00
    16   1    -0.21  -0.19  -0.34    -0.08  -0.07  -0.14    -0.02  -0.02  -0.04
    17   6     0.01   0.03  -0.01     0.01   0.00   0.04     0.00   0.00   0.01
    18   1    -0.19  -0.18  -0.32     0.01   0.04   0.03     0.00   0.01   0.00
    19   6    -0.04  -0.05  -0.07    -0.01  -0.02  -0.03    -0.00  -0.01  -0.01
    20   1    -0.09  -0.02  -0.08     0.05   0.02   0.05     0.01   0.00   0.01
    21   1    -0.04   0.00  -0.08    -0.10  -0.12  -0.17    -0.03  -0.03  -0.05
    22   1     0.25   0.23   0.43     0.09   0.07   0.14     0.03   0.02   0.05
    23  16     0.00  -0.00   0.00    -0.00   0.00  -0.00     0.00  -0.00  -0.00
    24   8     0.00   0.00  -0.00    -0.00  -0.00   0.00     0.00   0.00   0.00
    25   8     0.00   0.00   0.00    -0.00  -0.01  -0.01    -0.00  -0.00  -0.00
    26   6     0.00  -0.00  -0.00     0.00   0.00  -0.00    -0.01   0.00   0.01
    27   6    -0.00  -0.00   0.00    -0.01  -0.00   0.02     0.04   0.02  -0.09
    28   6    -0.00  -0.00   0.00    -0.01  -0.00   0.01     0.03   0.02  -0.04
    29   6    -0.00   0.00  -0.00     0.01   0.00  -0.02    -0.03  -0.02   0.08
    30   1     0.01   0.00  -0.01     0.08   0.04  -0.13    -0.33  -0.15   0.53
    31   6     0.00   0.00  -0.00     0.01   0.01  -0.01    -0.03  -0.02   0.02
    32   1     0.01  -0.00  -0.01     0.06   0.01  -0.10    -0.19  -0.04   0.32
    33   6     0.00  -0.00  -0.00    -0.00  -0.00  -0.00    -0.00  -0.00   0.01
    34   1    -0.01  -0.00   0.01    -0.06  -0.04   0.10     0.27   0.16  -0.43
    35   1    -0.01  -0.00   0.02    -0.04  -0.03   0.08     0.10   0.07  -0.22
    36   6    -0.00   0.00   0.00    -0.00  -0.00   0.00     0.01   0.00  -0.01
    37   1     0.00  -0.00  -0.00     0.02  -0.02  -0.00    -0.06   0.08   0.02
    38   1    -0.00   0.00  -0.00    -0.00   0.02  -0.01     0.00  -0.05   0.04
    39   1    -0.00   0.00  -0.00     0.01   0.01  -0.01    -0.01  -0.06   0.02
    40   7    -0.01   0.01  -0.02     0.03   0.01   0.02     0.01   0.00   0.00
    41   1     0.01   0.05  -0.07    -0.02   0.03   0.11    -0.01   0.01   0.03
    42   6     0.05  -0.03   0.04    -0.04   0.00  -0.06    -0.01   0.00  -0.01
    43   6    -0.00  -0.01   0.00     0.00  -0.00  -0.01     0.00  -0.00  -0.00
    44   6     0.01   0.00  -0.03     0.01   0.03   0.07    -0.00   0.00   0.02
    45   6    -0.01   0.00  -0.00     0.01  -0.02   0.00     0.00  -0.00   0.00
    46   6    -0.01   0.00  -0.00    -0.02   0.00   0.01    -0.00   0.00   0.00
    47   1     0.02   0.02   0.13    -0.02  -0.06  -0.46    -0.01  -0.02  -0.10
    48   6    -0.01   0.01   0.01    -0.01   0.00  -0.02    -0.00  -0.00  -0.01
    49   6     0.00   0.01   0.02     0.00  -0.01  -0.07     0.00  -0.00  -0.02
    50   1    -0.03  -0.04  -0.14     0.06   0.23   0.59     0.02   0.05   0.14
    51   6     0.01   0.00  -0.00    -0.00  -0.01   0.02    -0.00  -0.00   0.00
    52   1     0.03   0.01   0.01    -0.08  -0.02  -0.03    -0.02  -0.00  -0.01
    53   1    -0.01  -0.01   0.00     0.09   0.04  -0.02     0.02   0.01  -0.01
    54   1     0.02   0.00   0.01    -0.03   0.01  -0.03    -0.01   0.00  -0.01
    55   6     0.00  -0.01   0.01    -0.00  -0.03  -0.02    -0.00  -0.01  -0.00
    56   1     0.01   0.00  -0.02     0.12  -0.11   0.05     0.03  -0.02   0.01
    57   1     0.04  -0.04  -0.00    -0.00   0.07   0.02    -0.00   0.02   0.00
    58   1    -0.01   0.01  -0.02    -0.01   0.06   0.05    -0.00   0.01   0.01
    59   6    -0.00  -0.00  -0.01    -0.00   0.00   0.02    -0.00   0.00   0.01
    60   1     0.01  -0.01   0.02     0.02  -0.03  -0.06     0.01  -0.01  -0.01
    61   1     0.01   0.00   0.01    -0.08   0.08  -0.06    -0.02   0.02  -0.02
    62   1    -0.02   0.04  -0.01     0.08  -0.07  -0.01     0.02  -0.01  -0.00
    63   8     0.00  -0.00  -0.00     0.00   0.01   0.00     0.00   0.00  -0.00
                     82                     83                     84
                      A                      A                      A
 Frequencies --    983.4734               989.6738               998.5930
 Red. masses --      1.3566                 1.3191                 1.3276
 Frc consts  --      0.7731                 0.7612                 0.7800
 IR Inten    --      2.6529                 1.0889                 3.3584
  Atom  AN      X      Y      Z        X      Y      Z        X      Y      Z
     1   6    -0.00   0.00   0.00     0.00  -0.00   0.01    -0.01   0.00   0.02
     2   6     0.00  -0.00  -0.00     0.02   0.01  -0.05     0.02   0.02  -0.03
     3   6     0.00   0.00   0.00    -0.01  -0.00   0.01     0.01   0.00  -0.00
     4   6    -0.00   0.00   0.00    -0.01  -0.02   0.06    -0.00  -0.02   0.05
     5   6    -0.00  -0.00  -0.00     0.02   0.01  -0.09     0.01  -0.00  -0.05
     6   6     0.00   0.00   0.00    -0.03  -0.01   0.06    -0.03  -0.00   0.01
     7   1     0.00   0.00  -0.01    -0.00  -0.00   0.00     0.04   0.02  -0.12
     8   1    -0.01  -0.00   0.02    -0.07  -0.01   0.27    -0.06   0.00   0.24
     9   1     0.00   0.00  -0.01     0.11   0.04  -0.35     0.13   0.04  -0.32
    10   1    -0.00  -0.00   0.01    -0.16  -0.05   0.53    -0.10  -0.03   0.29
    11   1     0.00   0.00   0.00     0.09   0.02  -0.37     0.01   0.02  -0.10
    12   6     0.00  -0.00  -0.00     0.01  -0.00   0.00    -0.01  -0.00  -0.00
    13   6     0.00   0.00   0.00    -0.02  -0.02  -0.03     0.04   0.04   0.05
    14   6    -0.00  -0.00  -0.00     0.02   0.02   0.04    -0.04  -0.03  -0.05
    15   6    -0.00   0.00   0.00     0.01   0.01   0.02    -0.03  -0.03  -0.05
    16   1    -0.01  -0.01  -0.01     0.10   0.10   0.17    -0.18  -0.17  -0.33
    17   6     0.00   0.00   0.00    -0.02  -0.02  -0.04     0.03   0.02   0.05
    18   1     0.00   0.01   0.00    -0.14  -0.11  -0.22     0.21   0.21   0.37
    19   6    -0.00  -0.00  -0.00     0.01   0.00   0.01     0.01  -0.01   0.01
    20   1    -0.00   0.00  -0.00    -0.06  -0.05  -0.10     0.15   0.14   0.27
    21   1    -0.01  -0.01  -0.02     0.14   0.14   0.25    -0.15  -0.15  -0.27
    22   1     0.01   0.01   0.01    -0.04  -0.05  -0.09    -0.00  -0.02  -0.01
    23  16     0.00  -0.00   0.00    -0.00  -0.00   0.00     0.00  -0.00   0.00
    24   8    -0.00   0.00  -0.00     0.00  -0.00  -0.00     0.00   0.00  -0.00
    25   8    -0.00  -0.00  -0.00    -0.00  -0.00  -0.00    -0.00  -0.00  -0.00
    26   6    -0.01   0.00   0.00    -0.00   0.00  -0.00     0.00  -0.00  -0.00
    27   6    -0.05  -0.03   0.04     0.00   0.00  -0.00     0.00   0.00  -0.00
    28   6     0.07   0.03  -0.08    -0.00  -0.00  -0.00    -0.00  -0.00   0.00
    29   6     0.04   0.02  -0.05    -0.00  -0.00   0.00    -0.00  -0.00   0.00
    30   1     0.14   0.07  -0.30    -0.01  -0.01   0.02    -0.00  -0.00   0.01
    31   6    -0.06  -0.04   0.07     0.00   0.00   0.00     0.00   0.00  -0.00
    32   1    -0.33  -0.07   0.56    -0.00  -0.00   0.00     0.01   0.00  -0.01
    33   6     0.01   0.00   0.01    -0.00  -0.00   0.00     0.00  -0.00   0.00
    34   1    -0.15  -0.05   0.29     0.01   0.00  -0.01     0.00   0.00  -0.01
    35   1     0.23   0.17  -0.48     0.00   0.00   0.00    -0.00  -0.00   0.01
    36   6     0.01   0.01   0.00     0.00   0.00  -0.00     0.00   0.00  -0.00
    37   1    -0.04   0.02  -0.01    -0.00   0.00   0.00    -0.00   0.00  -0.00
    38   1     0.02  -0.06  -0.00    -0.00   0.00   0.00     0.00  -0.00   0.00
    39   1    -0.04   0.02  -0.00     0.00  -0.00   0.00    -0.00   0.00  -0.00
    40   7    -0.00   0.00  -0.00     0.00   0.00   0.00    -0.00  -0.00  -0.00
    41   1    -0.00   0.01   0.00     0.00  -0.00   0.00    -0.01   0.02   0.00
    42   6     0.00   0.00  -0.00    -0.00  -0.00  -0.01     0.00   0.00   0.01
    43   6    -0.00  -0.00  -0.00     0.00   0.00  -0.00    -0.00  -0.00   0.00
    44   6    -0.00  -0.00   0.00     0.00   0.01   0.01    -0.00  -0.01  -0.01
    45   6     0.00  -0.00   0.00     0.00  -0.00   0.00    -0.00   0.01  -0.00
    46   6    -0.00  -0.00   0.00    -0.01   0.00   0.00     0.01  -0.00  -0.00
    47   1    -0.00  -0.01  -0.02    -0.00  -0.01  -0.09     0.00  -0.01   0.05
    48   6     0.00  -0.00  -0.00    -0.00   0.00  -0.00     0.00  -0.00   0.00
    49   6     0.00   0.00  -0.00    -0.00  -0.00  -0.02     0.00   0.00   0.01
    50   1     0.01   0.01   0.03     0.01   0.06   0.16    -0.01  -0.05  -0.14
    51   6    -0.00  -0.00   0.00    -0.00  -0.00   0.01     0.00   0.01  -0.01
    52   1    -0.00  -0.00  -0.00    -0.03  -0.01  -0.01     0.05   0.01   0.01
    53   1     0.01   0.00  -0.00     0.03   0.01  -0.01    -0.03  -0.02   0.01
    54   1    -0.01  -0.00  -0.00    -0.00   0.01  -0.01    -0.01  -0.02   0.01
    55   6    -0.00  -0.00  -0.00    -0.00  -0.01  -0.00     0.00   0.01  -0.00
    56   1     0.00  -0.00  -0.00     0.04  -0.03   0.01    -0.04   0.02  -0.00
    57   1    -0.00   0.01   0.00     0.00   0.02   0.01    -0.02   0.00  -0.00
    58   1    -0.00   0.00   0.00    -0.01   0.02   0.01     0.01  -0.03   0.00
    59   6    -0.00  -0.00   0.00     0.00   0.00   0.01    -0.00  -0.01  -0.00
    60   1     0.01  -0.01  -0.00    -0.00  -0.00  -0.02     0.03  -0.02   0.03
    61   1    -0.01   0.01  -0.01    -0.02   0.01  -0.01     0.01   0.01   0.01
    62   1     0.01  -0.00  -0.00     0.02  -0.03  -0.00    -0.02   0.04  -0.01
    63   8     0.00   0.00  -0.00     0.00   0.00   0.00    -0.00  -0.00   0.00
                     85                     86                     87
                      A                      A                      A
 Frequencies --   1007.3807              1011.4643              1013.2123
 Red. masses --      1.4131                 1.3788                 2.9227
 Frc consts  --      0.8449                 0.8311                 1.7678
 IR Inten    --      1.0905                 4.7811                 0.2445
  Atom  AN      X      Y      Z        X      Y      Z        X      Y      Z
     1   6     0.00   0.00  -0.02    -0.03   0.00   0.08    -0.01  -0.01   0.04
     2   6    -0.02  -0.03   0.02     0.02  -0.02  -0.09     0.03   0.05  -0.03
     3   6    -0.00   0.00  -0.00    -0.00   0.00   0.01    -0.00  -0.00   0.01
     4   6    -0.01   0.03  -0.01    -0.01   0.03  -0.01     0.02  -0.04  -0.01
     5   6    -0.00  -0.00   0.01    -0.01  -0.01   0.03    -0.00   0.01   0.02
     6   6     0.03  -0.00   0.01     0.03   0.00  -0.04    -0.03  -0.00  -0.03
     7   1    -0.04  -0.01   0.13     0.16   0.04  -0.53     0.06  -0.00  -0.25
     8   1     0.04  -0.02  -0.18    -0.16  -0.08   0.65    -0.08   0.04   0.32
     9   1    -0.05   0.01   0.08    -0.05   0.01   0.13    -0.04  -0.08   0.10
    10   1     0.01   0.00  -0.03     0.07   0.01  -0.20     0.04   0.03  -0.13
    11   1     0.04  -0.00  -0.03    -0.06  -0.03   0.29    -0.08  -0.01   0.13
    12   6    -0.00  -0.00  -0.01     0.00  -0.00  -0.00    -0.00  -0.00  -0.00
    13   6     0.05   0.07   0.01     0.02   0.04  -0.04    -0.07  -0.14   0.17
    14   6    -0.04   0.01   0.06    -0.05   0.01   0.04     0.21   0.01  -0.10
    15   6    -0.05  -0.04  -0.05    -0.01  -0.00   0.01     0.02  -0.02  -0.07
    16   1    -0.14  -0.15  -0.38     0.06   0.05  -0.02    -0.31  -0.25  -0.08
    17   6    -0.02  -0.01  -0.06     0.00   0.01  -0.02    -0.04  -0.05   0.00
    18   1    -0.19  -0.16  -0.18    -0.10  -0.06  -0.03     0.09  -0.03  -0.33
    19   6     0.06  -0.02   0.06     0.03  -0.04   0.01    -0.10   0.18   0.01
    20   1     0.23   0.19   0.43    -0.02  -0.02  -0.00     0.18   0.19   0.22
    21   1     0.20   0.17   0.29     0.05   0.03   0.05     0.05   0.10   0.23
    22   1    -0.16  -0.23  -0.33     0.02  -0.05  -0.01    -0.23   0.07  -0.22
    23  16    -0.00   0.00  -0.00    -0.00  -0.00   0.00     0.00  -0.00  -0.00
    24   8     0.00   0.00   0.00     0.00   0.00  -0.00    -0.01  -0.00   0.00
    25   8    -0.00  -0.00  -0.00    -0.00  -0.00  -0.00     0.00   0.00   0.00
    26   6    -0.00   0.00   0.00     0.00   0.00  -0.00     0.00  -0.00  -0.00
    27   6    -0.00  -0.00   0.00     0.01   0.00  -0.00     0.00   0.00   0.00
    28   6     0.00   0.00  -0.00    -0.00  -0.00  -0.00    -0.00  -0.00  -0.00
    29   6     0.00   0.00   0.00    -0.01  -0.00  -0.00    -0.01  -0.00  -0.00
    30   1    -0.00   0.00  -0.01    -0.00  -0.01   0.03     0.00  -0.00   0.01
    31   6    -0.00  -0.00  -0.00     0.00   0.00   0.00     0.00   0.01   0.01
    32   1    -0.00  -0.00   0.01    -0.00  -0.00  -0.01    -0.01  -0.01   0.01
    33   6    -0.00   0.00  -0.00     0.00  -0.00   0.00     0.00  -0.00  -0.00
    34   1     0.00   0.00   0.00     0.00   0.00  -0.01    -0.01  -0.00  -0.01
    35   1    -0.00   0.00  -0.01     0.00  -0.00   0.01     0.01   0.01  -0.00
    36   6    -0.00  -0.00  -0.00     0.00   0.00   0.00    -0.00   0.00  -0.00
    37   1     0.00  -0.00   0.00    -0.00   0.00  -0.00     0.00   0.00   0.00
    38   1    -0.00   0.00   0.00     0.00  -0.01  -0.00    -0.00   0.01   0.00
    39   1     0.00  -0.00   0.00    -0.01   0.00  -0.00     0.00  -0.00   0.00
    40   7     0.00   0.00   0.00     0.01   0.00  -0.00     0.00   0.01  -0.00
    41   1    -0.01   0.03   0.02    -0.00   0.01   0.01    -0.01   0.03   0.02
    42   6    -0.00  -0.00   0.01     0.00  -0.00  -0.01    -0.00   0.00  -0.01
    43   6     0.00  -0.00  -0.01    -0.00  -0.00  -0.00     0.00   0.00  -0.00
    44   6     0.00   0.00   0.00    -0.00   0.00   0.00    -0.00   0.01   0.00
    45   6     0.00  -0.00  -0.00    -0.00   0.00  -0.00     0.00  -0.00  -0.00
    46   6    -0.00   0.00  -0.00     0.00  -0.00   0.00    -0.00   0.00   0.00
    47   1    -0.00   0.01  -0.00    -0.00  -0.02  -0.05    -0.00   0.00  -0.04
    48   6    -0.00   0.00  -0.00     0.00  -0.00  -0.00    -0.00   0.00  -0.00
    49   6    -0.00  -0.00   0.00     0.00   0.00  -0.01    -0.00  -0.00  -0.01
    50   1     0.00   0.01   0.03     0.02   0.03   0.07     0.00   0.03   0.07
    51   6    -0.00  -0.00   0.00    -0.00   0.00   0.00    -0.00  -0.00   0.01
    52   1    -0.02  -0.00  -0.01     0.01  -0.00  -0.01    -0.02  -0.01  -0.01
    53   1     0.02   0.01  -0.00     0.01  -0.01  -0.00     0.03   0.01  -0.01
    54   1    -0.01   0.00  -0.01    -0.02  -0.01  -0.00    -0.01   0.00  -0.01
    55   6    -0.00  -0.00   0.00    -0.00  -0.00  -0.01    -0.00  -0.01  -0.00
    56   1     0.01  -0.00  -0.00     0.01  -0.02   0.02     0.03  -0.03   0.01
    57   1     0.01  -0.01   0.00    -0.02   0.03   0.00     0.01   0.01   0.00
    58   1    -0.01   0.01  -0.01     0.01  -0.00   0.02    -0.01   0.02   0.01
    59   6     0.00   0.00   0.00    -0.00  -0.00   0.01     0.00   0.00   0.01
    60   1    -0.02   0.01  -0.02     0.03  -0.03  -0.01    -0.01   0.00  -0.02
    61   1    -0.02   0.00  -0.01    -0.02   0.03  -0.02    -0.02   0.01  -0.01
    62   1     0.02  -0.03   0.00     0.02  -0.00  -0.01     0.02  -0.03   0.00
    63   8     0.00   0.00  -0.00    -0.00   0.00   0.00     0.00  -0.00   0.00
                     88                     89                     90
                      A                      A                      A
 Frequencies --   1015.5455              1019.4312              1023.5815
 Red. masses --      5.2345                 1.4239                 1.3653
 Frc consts  --      3.1807                 0.8719                 0.8428
 IR Inten    --      0.7677                 1.2283                 9.8579
  Atom  AN      X      Y      Z        X      Y      Z        X      Y      Z
     1   6     0.03  -0.09   0.01    -0.00   0.00   0.00    -0.00   0.00  -0.01
     2   6     0.13   0.33   0.06     0.00   0.00  -0.00    -0.01  -0.01   0.01
     3   6    -0.01  -0.00   0.01     0.00  -0.00  -0.00     0.01   0.00  -0.00
     4   6     0.16  -0.31  -0.01    -0.00   0.00   0.00    -0.00   0.01  -0.00
     5   6     0.02   0.09   0.04     0.00   0.00   0.00    -0.00  -0.00  -0.00
     6   6    -0.28  -0.01  -0.10    -0.00  -0.00  -0.00     0.01   0.00   0.00
     7   1    -0.05  -0.12  -0.05     0.00   0.00  -0.01    -0.01   0.00   0.04
     8   1     0.03   0.40  -0.02    -0.00  -0.00   0.01     0.01  -0.00  -0.06
     9   1    -0.02  -0.43   0.14     0.00   0.00  -0.00    -0.01   0.00   0.00
    10   1    -0.01   0.13  -0.15     0.00  -0.00  -0.00    -0.00  -0.00   0.00
    11   1    -0.32  -0.02   0.01    -0.00  -0.00   0.00     0.01   0.00  -0.01
    12   6    -0.00  -0.00  -0.01     0.00  -0.00   0.00    -0.00   0.00  -0.00
    13   6     0.04   0.07  -0.06     0.00   0.00  -0.00    -0.00  -0.01   0.00
    14   6    -0.07   0.00   0.06    -0.00  -0.00   0.00     0.01   0.00   0.00
    15   6    -0.02  -0.01   0.01    -0.00   0.00   0.00     0.00   0.00  -0.00
    16   1     0.06   0.05  -0.08     0.00   0.00   0.00     0.00   0.00   0.02
    17   6     0.00   0.01  -0.03     0.00   0.00  -0.00    -0.01  -0.01  -0.00
    18   1    -0.15  -0.11  -0.05     0.00   0.00   0.01    -0.02  -0.01  -0.06
    19   6     0.05  -0.06   0.01     0.00  -0.00   0.00    -0.00   0.00  -0.00
    20   1     0.00  -0.02   0.05    -0.00  -0.00  -0.00    -0.00   0.00  -0.01
    21   1     0.07   0.05   0.06    -0.00  -0.00  -0.01     0.01   0.02   0.04
    22   1     0.02  -0.09  -0.02     0.00  -0.00   0.00    -0.00   0.00  -0.01
    23  16    -0.00   0.00  -0.00     0.00   0.00  -0.00     0.00  -0.00   0.00
    24   8     0.00  -0.00   0.00    -0.00  -0.00   0.00     0.00   0.00  -0.00
    25   8    -0.00  -0.00   0.00     0.01   0.01   0.01     0.00   0.00   0.00
    26   6    -0.00   0.00   0.00    -0.01  -0.03  -0.01     0.00  -0.00  -0.00
    27   6    -0.00  -0.00   0.00     0.01   0.04   0.02    -0.00   0.00   0.00
    28   6     0.00  -0.00  -0.00     0.02  -0.02  -0.01     0.00  -0.00   0.00
    29   6     0.00  -0.00   0.00     0.02   0.02   0.01     0.00   0.00   0.00
    30   1     0.01   0.00  -0.01    -0.06   0.09  -0.01    -0.01   0.01  -0.00
    31   6    -0.00  -0.00  -0.00     0.06   0.04   0.06     0.00   0.00   0.00
    32   1    -0.00  -0.00   0.00    -0.03  -0.18   0.05     0.01   0.00  -0.01
    33   6     0.00   0.00   0.00    -0.04  -0.02  -0.03    -0.00  -0.00  -0.00
    34   1     0.00  -0.00   0.00     0.01   0.02   0.03     0.00   0.00   0.00
    35   1    -0.00  -0.00  -0.00     0.16   0.04  -0.00     0.01  -0.00   0.00
    36   6     0.00   0.00   0.00    -0.11  -0.05  -0.08    -0.01  -0.00  -0.00
    37   1    -0.00  -0.00  -0.00     0.25  -0.03   0.17     0.01  -0.00   0.01
    38   1     0.00  -0.00  -0.00    -0.23   0.64   0.12    -0.01   0.03   0.01
    39   1    -0.00   0.00  -0.00     0.44  -0.36   0.06     0.02  -0.02   0.00
    40   7     0.00   0.00  -0.00    -0.00  -0.00  -0.00    -0.00  -0.00  -0.00
    41   1     0.00   0.02  -0.00    -0.00  -0.00   0.01     0.01  -0.01  -0.02
    42   6    -0.01  -0.01   0.01     0.00  -0.00   0.00     0.00   0.01   0.01
    43   6    -0.00  -0.00  -0.01     0.00   0.00   0.00    -0.03  -0.03  -0.02
    44   6     0.00  -0.00  -0.00     0.00   0.00  -0.00    -0.02  -0.03   0.01
    45   6    -0.00   0.00  -0.00     0.00  -0.00   0.00    -0.01   0.03  -0.01
    46   6     0.00  -0.00   0.00    -0.00   0.00  -0.00     0.02  -0.02   0.01
    47   1     0.00  -0.01   0.01    -0.00   0.01  -0.00     0.00  -0.14   0.02
    48   6     0.01  -0.00   0.00    -0.00  -0.00  -0.00     0.03  -0.01   0.01
    49   6    -0.00   0.00  -0.00    -0.00  -0.00   0.00     0.05   0.03  -0.01
    50   1     0.01   0.02   0.03    -0.01  -0.00  -0.01     0.18   0.02   0.08
    51   6    -0.00   0.01   0.00     0.00  -0.00   0.00    -0.02   0.07  -0.00
    52   1     0.04  -0.00  -0.01    -0.02  -0.00   0.00     0.32   0.01  -0.02
    53   1     0.01  -0.02  -0.00     0.00   0.01   0.00    -0.02  -0.14  -0.01
    54   1    -0.04  -0.02   0.00     0.01   0.01  -0.00    -0.22  -0.16   0.04
    55   6    -0.00  -0.00  -0.01    -0.00  -0.00   0.00     0.02   0.05  -0.01
    56   1     0.01  -0.01   0.00     0.00   0.00  -0.00    -0.16   0.08   0.03
    57   1    -0.01   0.03   0.00     0.01  -0.01  -0.00    -0.15   0.04  -0.02
    58   1    -0.00   0.01   0.01    -0.00   0.01  -0.00     0.09  -0.17   0.03
    59   6    -0.00  -0.01   0.01     0.00   0.00  -0.00    -0.08  -0.08   0.04
    60   1     0.04  -0.04  -0.01    -0.02   0.02  -0.00     0.45  -0.36   0.09
    61   1    -0.02   0.04  -0.02     0.00  -0.02   0.01    -0.09   0.39  -0.10
    62   1     0.02   0.00  -0.01    -0.00  -0.01   0.01     0.06   0.24  -0.16
    63   8    -0.00  -0.00   0.00    -0.00  -0.00  -0.00    -0.00   0.01  -0.00
                     91                     92                     93
                      A                      A                      A
 Frequencies --   1034.7730              1039.1250              1054.9091
 Red. masses --      3.5210                 1.4170                 1.7247
 Frc consts  --      2.2213                 0.9015                 1.1308
 IR Inten    --      7.4788                 2.8013                11.0022
  Atom  AN      X      Y      Z        X      Y      Z        X      Y      Z
     1   6    -0.00   0.00   0.00    -0.00   0.01  -0.00    -0.00  -0.01  -0.00
     2   6     0.00   0.00  -0.01     0.00  -0.00   0.00    -0.00  -0.00  -0.00
     3   6     0.00   0.00   0.00     0.01   0.00  -0.00     0.00   0.00  -0.00
     4   6     0.00  -0.00  -0.00     0.00   0.00   0.00    -0.01   0.00  -0.00
     5   6    -0.00  -0.00   0.00    -0.00  -0.01  -0.00     0.00   0.01   0.00
     6   6     0.00   0.00  -0.00    -0.00   0.00  -0.00     0.01   0.00   0.00
     7   1     0.01   0.00  -0.03     0.00   0.02   0.01    -0.01  -0.01   0.00
     8   1    -0.01  -0.00   0.05     0.00  -0.00  -0.01    -0.01   0.00  -0.01
     9   1    -0.00  -0.00   0.01     0.01   0.01  -0.01    -0.01  -0.00  -0.01
    10   1     0.00   0.00  -0.01    -0.00  -0.02   0.00    -0.01   0.01   0.00
    11   1    -0.00   0.00   0.01    -0.00   0.00  -0.00     0.01  -0.00   0.00
    12   6     0.00   0.00  -0.00    -0.00   0.00  -0.00    -0.00   0.00   0.00
    13   6    -0.00  -0.01   0.01     0.00  -0.00  -0.00    -0.00   0.00  -0.00
    14   6     0.01  -0.00  -0.00    -0.00  -0.00  -0.00    -0.00   0.00  -0.00
    15   6     0.00  -0.00  -0.00     0.00  -0.00   0.00     0.00   0.00  -0.00
    16   1    -0.00  -0.01   0.01     0.01   0.00   0.01    -0.00   0.01   0.01
    17   6    -0.00  -0.00   0.00     0.00   0.00   0.00    -0.00  -0.00   0.00
    18   1     0.00  -0.00  -0.01     0.03   0.00   0.05     0.01   0.01   0.01
    19   6    -0.00   0.01  -0.00    -0.00   0.00  -0.00     0.00  -0.00   0.00
    20   1     0.00   0.01  -0.00    -0.01  -0.02  -0.01     0.00   0.01  -0.01
    21   1     0.00  -0.00   0.00    -0.01  -0.01  -0.03    -0.01  -0.00  -0.00
    22   1    -0.00   0.01  -0.00     0.00   0.01   0.01     0.00  -0.00   0.00
    23  16    -0.01  -0.01   0.03    -0.00  -0.00   0.00    -0.00   0.00  -0.00
    24   8     0.06   0.01  -0.01     0.00   0.00  -0.00     0.00  -0.00  -0.00
    25   8    -0.02  -0.03  -0.03     0.00   0.00   0.00    -0.00  -0.00  -0.00
    26   6    -0.07   0.12  -0.02    -0.00   0.00  -0.00    -0.00  -0.00   0.00
    27   6    -0.12  -0.09  -0.09    -0.00  -0.00  -0.00     0.00   0.00   0.00
    28   6     0.14   0.03   0.13     0.00  -0.00   0.00    -0.00  -0.00  -0.00
    29   6     0.22   0.06   0.14     0.00   0.00   0.00    -0.00  -0.00  -0.00
    30   1    -0.31   0.07  -0.20    -0.00   0.00  -0.00     0.01  -0.00   0.00
    31   6    -0.12  -0.13  -0.15    -0.00  -0.00  -0.00     0.00   0.00   0.00
    32   1     0.24   0.27   0.00     0.01   0.00  -0.01    -0.00  -0.01   0.00
    33   6    -0.04   0.02   0.00    -0.00   0.00  -0.00    -0.00  -0.00   0.00
    34   1     0.19   0.33   0.26     0.00   0.00   0.00    -0.00  -0.01  -0.00
    35   1    -0.42  -0.04  -0.08    -0.01  -0.00   0.00     0.00  -0.00   0.01
    36   6    -0.02  -0.03  -0.04    -0.00  -0.00   0.00     0.00   0.00  -0.00
    37   1     0.08   0.00   0.06     0.00  -0.00  -0.00    -0.00   0.00  -0.00
    38   1    -0.06   0.16   0.06     0.00  -0.00  -0.00     0.00  -0.00   0.00
    39   1     0.16  -0.18   0.03     0.00   0.00  -0.00    -0.00  -0.00   0.00
    40   7    -0.00   0.01  -0.01    -0.01  -0.01   0.00     0.00  -0.00   0.00
    41   1     0.01   0.01  -0.03     0.01  -0.01  -0.02    -0.00   0.01   0.00
    42   6     0.00  -0.00  -0.00     0.01   0.01   0.01    -0.00  -0.00   0.00
    43   6     0.00   0.00   0.00     0.01  -0.01  -0.07    -0.01   0.00  -0.01
    44   6     0.00   0.00   0.00    -0.00   0.00  -0.01     0.04   0.03  -0.01
    45   6     0.00   0.00   0.00    -0.00  -0.02  -0.08     0.06   0.02   0.00
    46   6     0.00  -0.00  -0.00    -0.00   0.01  -0.01     0.03  -0.03   0.00
    47   1    -0.00   0.00  -0.01     0.00   0.04   0.09     0.02   0.15  -0.00
    48   6     0.00  -0.00  -0.00    -0.01   0.01   0.03     0.14  -0.05   0.01
    49   6    -0.00  -0.00   0.00    -0.01  -0.00   0.03    -0.04   0.00   0.01
    50   1    -0.00   0.00   0.01    -0.03  -0.08  -0.19    -0.09  -0.00  -0.05
    51   6    -0.00   0.00  -0.00    -0.00   0.01   0.11    -0.07   0.06  -0.02
    52   1     0.01   0.00   0.01    -0.10  -0.09  -0.22     0.27   0.01  -0.01
    53   1    -0.02  -0.00   0.00     0.53   0.10  -0.10    -0.14  -0.18  -0.00
    54   1     0.01  -0.00   0.01    -0.36  -0.05  -0.18    -0.27  -0.18   0.06
    55   6    -0.00  -0.00   0.00     0.00  -0.00   0.00    -0.14  -0.04   0.02
    56   1     0.01   0.00  -0.01     0.00  -0.00  -0.00     0.34  -0.13  -0.08
    57   1     0.01  -0.01   0.00     0.01  -0.01  -0.00     0.29   0.02   0.04
    58   1    -0.01   0.02  -0.01     0.01  -0.01  -0.00    -0.33   0.56  -0.09
    59   6     0.00   0.00  -0.00     0.01   0.04   0.08     0.00  -0.00   0.01
    60   1    -0.00   0.00   0.00    -0.06  -0.00  -0.22     0.03  -0.03  -0.01
    61   1     0.00  -0.00   0.00    -0.26   0.15  -0.19    -0.02   0.02  -0.02
    62   1    -0.00   0.00   0.00     0.29  -0.34   0.02     0.04  -0.03  -0.00
    63   8    -0.00   0.00  -0.00     0.00  -0.01  -0.01    -0.03  -0.00   0.00
                     94                     95                     96
                      A                      A                      A
 Frequencies --   1058.3057              1062.3354              1063.8913
 Red. masses --      2.5770                 2.0690                 1.5552
 Frc consts  --      1.7005                 1.3757                 1.0371
 IR Inten    --      4.2645                 3.8031                15.5328
  Atom  AN      X      Y      Z        X      Y      Z        X      Y      Z
     1   6    -0.03   0.16  -0.00     0.00  -0.10  -0.00    -0.00   0.01   0.00
     2   6     0.05  -0.02   0.02    -0.04   0.03  -0.01     0.00  -0.00   0.00
     3   6     0.05   0.00   0.01     0.01  -0.01   0.00     0.00   0.00  -0.00
     4   6     0.05   0.03   0.01    -0.04  -0.02  -0.01     0.00   0.00   0.00
     5   6    -0.02  -0.16  -0.01     0.00   0.11   0.01    -0.00  -0.01  -0.00
     6   6    -0.13  -0.01  -0.03     0.11   0.00   0.03    -0.01  -0.00  -0.00
     7   1     0.21   0.32   0.09    -0.23  -0.25  -0.10     0.01   0.01   0.00
     8   1     0.25  -0.12   0.04    -0.22   0.13  -0.03     0.01  -0.01   0.00
     9   1     0.19   0.11   0.14    -0.22  -0.13  -0.11     0.01   0.01   0.01
    10   1     0.24  -0.31   0.02    -0.21   0.23  -0.03     0.01  -0.01   0.00
    11   1    -0.14  -0.02  -0.05     0.12  -0.02   0.04    -0.01  -0.00  -0.00
    12   6    -0.02   0.04  -0.01     0.01  -0.00  -0.01    -0.00   0.00   0.00
    13   6    -0.04   0.03   0.01    -0.05   0.02   0.02     0.00   0.00  -0.00
    14   6    -0.01   0.05  -0.01    -0.01   0.06  -0.02     0.00  -0.00   0.00
    15   6     0.10   0.03  -0.08     0.08   0.04  -0.07     0.00  -0.00   0.00
    16   1    -0.17   0.10   0.03    -0.20   0.10   0.05     0.00  -0.00  -0.00
    17   6    -0.09  -0.08   0.09    -0.09  -0.06   0.08     0.00   0.00  -0.00
    18   1    -0.08   0.21  -0.16    -0.05   0.32  -0.14    -0.00  -0.00   0.00
    19   6     0.07  -0.09   0.01     0.08  -0.10   0.01    -0.00   0.00   0.00
    20   1     0.08   0.29  -0.18     0.05   0.35  -0.20     0.00  -0.00   0.00
    21   1    -0.29   0.06   0.17    -0.32   0.08   0.14     0.00  -0.00   0.00
    22   1     0.10  -0.09  -0.02     0.13  -0.08  -0.03    -0.00   0.00   0.00
    23  16     0.00  -0.00  -0.00    -0.00   0.00   0.00     0.00  -0.00  -0.00
    24   8    -0.01  -0.00  -0.00     0.01   0.00  -0.00    -0.00  -0.00   0.00
    25   8     0.00   0.01   0.01    -0.00  -0.00   0.00     0.00   0.00   0.00
    26   6     0.00  -0.01  -0.00     0.00   0.00  -0.00    -0.01   0.01   0.00
    27   6    -0.00  -0.00  -0.00     0.00   0.00   0.00     0.01   0.01   0.01
    28   6     0.00   0.00   0.00    -0.00  -0.00  -0.00    -0.02  -0.00  -0.01
    29   6    -0.00   0.00   0.00    -0.00   0.00  -0.00     0.02   0.01  -0.04
    30   1    -0.01   0.01  -0.02     0.00  -0.00   0.00     0.03  -0.00   0.03
    31   6    -0.00   0.00   0.00     0.00   0.00  -0.00     0.02   0.01  -0.03
    32   1     0.01   0.01  -0.00    -0.00  -0.00  -0.00    -0.03  -0.03   0.00
    33   6     0.00   0.00  -0.00    -0.00  -0.00   0.00    -0.07  -0.04   0.12
    34   1    -0.00   0.01   0.00    -0.00  -0.00   0.00    -0.09  -0.07   0.14
    35   1    -0.00   0.01  -0.00     0.00  -0.00   0.00    -0.03  -0.06   0.13
    36   6    -0.00  -0.00   0.00     0.00   0.00  -0.00     0.08   0.03  -0.13
    37   1     0.01  -0.02  -0.00    -0.01   0.02   0.00    -0.36   0.59   0.12
    38   1     0.00   0.01  -0.01    -0.00  -0.01   0.01    -0.01  -0.23   0.29
    39   1     0.00   0.02  -0.01     0.00  -0.02   0.01     0.03  -0.50   0.15
    40   7    -0.02  -0.03   0.01    -0.01  -0.00  -0.00     0.00  -0.00   0.00
    41   1    -0.02  -0.05   0.02     0.02   0.00  -0.05    -0.00  -0.00   0.00
    42   6     0.01   0.01  -0.01     0.04  -0.02   0.01    -0.00  -0.00  -0.00
    43   6    -0.00   0.00   0.00    -0.00   0.00   0.01     0.00  -0.00  -0.00
    44   6     0.00  -0.00   0.00    -0.00  -0.00   0.00    -0.00   0.00   0.00
    45   6     0.00   0.00   0.00    -0.01  -0.00  -0.01    -0.00  -0.00  -0.00
    46   6     0.00  -0.00   0.00    -0.00  -0.00  -0.01    -0.00  -0.00  -0.01
    47   1     0.00   0.00  -0.01    -0.00  -0.01  -0.02    -0.00  -0.00  -0.02
    48   6     0.00  -0.00  -0.00    -0.01   0.00   0.00    -0.00   0.00   0.00
    49   6    -0.00  -0.00  -0.01     0.00  -0.00   0.00     0.00  -0.00  -0.00
    50   1    -0.01   0.02   0.03    -0.01  -0.02  -0.04     0.00   0.00   0.00
    51   6    -0.00  -0.00  -0.00     0.00  -0.00   0.01     0.00  -0.00   0.00
    52   1    -0.00   0.00   0.01    -0.02  -0.01  -0.02    -0.00  -0.00  -0.00
    53   1    -0.02  -0.00   0.00     0.07   0.02  -0.01     0.00   0.00  -0.00
    54   1     0.01   0.00   0.01    -0.03   0.00  -0.02     0.00   0.00  -0.00
    55   6    -0.01  -0.00  -0.00     0.01   0.01   0.01     0.00   0.00   0.01
    56   1     0.02  -0.02   0.01    -0.05   0.05  -0.02    -0.02   0.03  -0.02
    57   1     0.00   0.02   0.00     0.02  -0.05  -0.01     0.02  -0.03  -0.00
    58   1    -0.01   0.02   0.00     0.01  -0.03  -0.02    -0.00  -0.00  -0.02
    59   6     0.01   0.00  -0.00     0.00   0.00  -0.01    -0.00   0.00   0.00
    60   1    -0.01   0.01  -0.00    -0.01   0.01   0.01    -0.00   0.00  -0.00
    61   1     0.01  -0.02   0.01     0.02  -0.02   0.01    -0.00   0.00  -0.00
    62   1    -0.00  -0.01   0.01    -0.02   0.01   0.00     0.00  -0.00   0.00
    63   8    -0.00  -0.00   0.00     0.00  -0.00  -0.00     0.00  -0.00  -0.00
                     97                     98                     99
                      A                      A                      A
 Frequencies --   1066.9846              1070.8954              1090.0362
 Red. masses --      1.5028                 1.5516                 4.3104
 Frc consts  --      1.0080                 1.0484                 3.0175
 IR Inten    --      4.4852                 0.0821                75.1573
  Atom  AN      X      Y      Z        X      Y      Z        X      Y      Z
     1   6    -0.00  -0.01  -0.00     0.00   0.00   0.00     0.01   0.01   0.00
     2   6    -0.00  -0.00   0.00     0.00  -0.00   0.00     0.00  -0.00   0.00
     3   6     0.00  -0.00  -0.00    -0.01   0.00  -0.00    -0.02  -0.00  -0.01
     4   6    -0.01   0.00  -0.00     0.00   0.00   0.00     0.00   0.01  -0.00
     5   6     0.00   0.01   0.00     0.00  -0.00   0.00     0.01  -0.01   0.00
     6   6     0.01  -0.00   0.00    -0.01   0.00  -0.00    -0.01  -0.00  -0.00
     7   1    -0.02  -0.02   0.01     0.02   0.01   0.01     0.04   0.03   0.03
     8   1    -0.00   0.01  -0.05     0.02  -0.01   0.00     0.03  -0.01  -0.01
     9   1    -0.02  -0.01  -0.01     0.02   0.01   0.01     0.03   0.03   0.02
    10   1    -0.02   0.02   0.00     0.02  -0.01   0.00     0.05  -0.03   0.01
    11   1     0.01  -0.01  -0.00    -0.01   0.00  -0.00    -0.02  -0.01  -0.01
    12   6     0.00  -0.00  -0.00     0.00  -0.00  -0.00     0.00  -0.01   0.01
    13   6    -0.00   0.00   0.00     0.00  -0.00  -0.00    -0.01  -0.00   0.00
    14   6    -0.00   0.00  -0.00    -0.00  -0.00   0.00     0.01  -0.00  -0.01
    15   6     0.00   0.00  -0.00    -0.01  -0.00   0.00     0.01   0.00  -0.01
    16   1    -0.01   0.00   0.00     0.01  -0.01  -0.01    -0.03   0.03   0.03
    17   6    -0.00  -0.00   0.00     0.00   0.00  -0.00    -0.01   0.00   0.00
    18   1     0.00   0.02  -0.00    -0.01  -0.02  -0.01     0.02   0.00   0.00
    19   6     0.00  -0.01   0.00    -0.00   0.00  -0.00    -0.00  -0.00   0.00
    20   1     0.00   0.02  -0.01     0.00  -0.01   0.02     0.00   0.03  -0.02
    21   1    -0.02   0.01   0.00     0.02  -0.00  -0.00    -0.04   0.03   0.01
    22   1     0.01  -0.00  -0.00    -0.00   0.00  -0.00    -0.03  -0.02   0.02
    23  16    -0.00   0.00   0.00     0.00  -0.00  -0.00    -0.06   0.04   0.09
    24   8     0.00   0.00  -0.00    -0.00  -0.00   0.00     0.23   0.03  -0.04
    25   8    -0.00  -0.00  -0.00     0.00   0.00   0.00    -0.09  -0.14  -0.12
    26   6    -0.00   0.00   0.00     0.00  -0.00  -0.00    -0.12   0.24  -0.01
    27   6     0.00   0.00   0.00    -0.00  -0.00  -0.00     0.09   0.07   0.08
    28   6    -0.00  -0.00  -0.00     0.00   0.00   0.00    -0.11  -0.04  -0.09
    29   6     0.00  -0.00  -0.00     0.00   0.00   0.00     0.05  -0.06   0.02
    30   1     0.00   0.00   0.00    -0.00   0.00  -0.00     0.43  -0.15   0.21
    31   6     0.00  -0.00  -0.00    -0.00  -0.00  -0.00     0.02  -0.08  -0.00
    32   1    -0.00  -0.00  -0.00     0.00   0.00  -0.00    -0.15  -0.42  -0.10
    33   6    -0.00  -0.00   0.01    -0.00   0.00   0.00     0.01  -0.01  -0.01
    34   1    -0.00  -0.01   0.01     0.00   0.00   0.00     0.08  -0.30  -0.07
    35   1    -0.00  -0.01   0.01    -0.00   0.00   0.00     0.30  -0.24   0.01
    36   6     0.00   0.00  -0.01     0.00   0.00  -0.00    -0.02   0.01   0.01
    37   1    -0.02   0.04   0.01    -0.00   0.00  -0.00     0.04  -0.04   0.00
    38   1    -0.00  -0.01   0.02     0.00  -0.00   0.00    -0.02   0.07  -0.02
    39   1     0.01  -0.03   0.01    -0.00  -0.00   0.00     0.02   0.04  -0.01
    40   7    -0.00   0.00  -0.00     0.00   0.00  -0.00     0.02   0.02  -0.03
    41   1     0.00   0.00  -0.01    -0.00  -0.01   0.01     0.04   0.08  -0.09
    42   6     0.00  -0.00   0.00    -0.00   0.00  -0.01    -0.02  -0.03   0.00
    43   6    -0.00   0.00  -0.00    -0.01   0.03   0.11     0.01  -0.00   0.00
    44   6     0.00  -0.01  -0.05     0.00  -0.00   0.00    -0.00   0.00   0.00
    45   6    -0.00   0.00   0.01     0.01  -0.02  -0.10     0.00  -0.00  -0.00
    46   6     0.01   0.03   0.13     0.00  -0.00   0.00    -0.00   0.00  -0.00
    47   1     0.02   0.05   0.30    -0.00  -0.00  -0.00    -0.00   0.01  -0.00
    48   6    -0.00  -0.01  -0.02     0.01   0.00   0.01    -0.00   0.00  -0.00
    49   6    -0.00   0.00   0.00     0.01  -0.00  -0.02     0.00  -0.01   0.01
    50   1    -0.01  -0.01  -0.03     0.01   0.04   0.09     0.00  -0.02  -0.01
    51   6     0.00  -0.00  -0.00    -0.02   0.03   0.10    -0.00   0.00   0.00
    52   1    -0.02   0.00   0.01    -0.00  -0.08  -0.20     0.01  -0.00  -0.00
    53   1    -0.01   0.01   0.00     0.43   0.04  -0.09     0.00  -0.00  -0.00
    54   1     0.02   0.01   0.00    -0.38  -0.09  -0.14    -0.01  -0.00  -0.00
    55   6    -0.01  -0.04  -0.15    -0.00   0.00  -0.01     0.01  -0.00   0.00
    56   1     0.29  -0.43   0.28     0.01  -0.02   0.01    -0.01   0.02  -0.01
    57   1    -0.32   0.55   0.05    -0.01   0.03   0.00     0.00  -0.02  -0.00
    58   1     0.09   0.02   0.30    -0.00   0.01   0.01     0.01  -0.02  -0.01
    59   6     0.00  -0.00   0.00     0.01  -0.04  -0.11    -0.01   0.00  -0.00
    60   1     0.00  -0.00  -0.00    -0.00   0.06   0.25     0.00  -0.00   0.01
    61   1    -0.00  -0.00  -0.00     0.32  -0.24   0.23     0.00   0.01   0.00
    62   1     0.01  -0.01   0.00    -0.35   0.35   0.01    -0.01   0.02  -0.01
    63   8     0.00   0.00   0.01    -0.00  -0.00  -0.00     0.00   0.00   0.00
                    100                    101                    102
                      A                      A                      A
 Frequencies --   1122.6491              1125.5678              1126.5823
 Red. masses --      1.7507                 1.6805                 2.0246
 Frc consts  --      1.3000                 1.2544                 1.5139
 IR Inten    --     11.2368                 8.8590                 7.6201
  Atom  AN      X      Y      Z        X      Y      Z        X      Y      Z
     1   6     0.03  -0.05   0.01    -0.01   0.01  -0.00    -0.00   0.01  -0.00
     2   6    -0.10  -0.04  -0.03     0.02   0.01   0.01     0.01   0.00   0.00
     3   6     0.06   0.07   0.02    -0.01  -0.01  -0.00    -0.00  -0.01  -0.00
     4   6     0.10  -0.05   0.02    -0.02   0.01  -0.00    -0.01   0.00  -0.00
     5   6    -0.06  -0.08  -0.02     0.01   0.01   0.00     0.01   0.01   0.00
     6   6     0.01   0.09   0.01    -0.00  -0.02  -0.00    -0.00  -0.01  -0.00
     7   1     0.16   0.02   0.04    -0.03  -0.00  -0.01    -0.02  -0.00  -0.01
     8   1    -0.46   0.16  -0.11     0.09  -0.03   0.02     0.05  -0.02   0.01
     9   1     0.30   0.06   0.14    -0.08  -0.03  -0.02    -0.03  -0.01  -0.02
    10   1    -0.28   0.04  -0.09     0.06  -0.01   0.01     0.03  -0.00   0.01
    11   1    -0.01   0.64   0.04     0.00  -0.12  -0.01     0.00  -0.07  -0.00
    12   6    -0.00   0.02  -0.01     0.04   0.04  -0.04     0.01   0.01  -0.01
    13   6     0.01  -0.01   0.01     0.03  -0.10   0.04     0.01  -0.02   0.01
    14   6    -0.02   0.01   0.01    -0.09   0.06   0.02    -0.02   0.01   0.00
    15   6    -0.01  -0.00   0.01    -0.07   0.00   0.04    -0.02   0.00   0.01
    16   1     0.06  -0.05  -0.02     0.29  -0.28  -0.03     0.06  -0.07  -0.01
    17   6    -0.00  -0.02   0.01    -0.00  -0.06   0.03    -0.00  -0.01   0.01
    18   1    -0.04   0.01  -0.03    -0.15   0.35  -0.12    -0.02   0.08  -0.01
    19   6     0.01   0.01  -0.01     0.05   0.05  -0.06     0.01   0.01  -0.01
    20   1    -0.01   0.00   0.01    -0.09   0.10   0.01    -0.02   0.02  -0.00
    21   1     0.05  -0.04   0.01     0.25  -0.22  -0.01     0.05  -0.05  -0.00
    22   1     0.07   0.05  -0.07     0.43   0.26  -0.39     0.10   0.05  -0.08
    23  16     0.00  -0.00   0.00     0.01  -0.00  -0.01     0.00  -0.00  -0.00
    24   8     0.01   0.00  -0.00    -0.01  -0.00   0.00    -0.00  -0.00   0.00
    25   8    -0.00  -0.00   0.00     0.00   0.01   0.00     0.00   0.00   0.00
    26   6    -0.00   0.02  -0.00    -0.02   0.03  -0.00    -0.01   0.01  -0.00
    27   6     0.00   0.00   0.00     0.01   0.01   0.01     0.00   0.00   0.00
    28   6    -0.01  -0.00  -0.00    -0.01  -0.00  -0.01    -0.00  -0.00  -0.00
    29   6     0.00  -0.00   0.00     0.01  -0.01   0.00     0.00  -0.00   0.00
    30   1     0.02  -0.01   0.01     0.04  -0.02   0.02     0.01  -0.00   0.01
    31   6     0.00  -0.01  -0.00    -0.00  -0.01  -0.00    -0.00  -0.00  -0.00
    32   1    -0.00  -0.01  -0.01    -0.01  -0.04  -0.01    -0.00  -0.02  -0.00
    33   6     0.00   0.00   0.00     0.00  -0.00  -0.00     0.00  -0.00  -0.00
    34   1     0.00  -0.01   0.00     0.01  -0.02  -0.00     0.00  -0.01  -0.00
    35   1     0.02  -0.02   0.00     0.02  -0.02  -0.00     0.00  -0.01   0.00
    36   6    -0.00  -0.00  -0.00    -0.00   0.00   0.00    -0.00   0.00   0.00
    37   1     0.00  -0.00   0.00     0.00  -0.00   0.00     0.00  -0.00  -0.00
    38   1    -0.00   0.01   0.00    -0.00   0.01  -0.00    -0.00   0.00  -0.00
    39   1     0.01  -0.00   0.00     0.00   0.00  -0.00    -0.00   0.00  -0.00
    40   7    -0.04  -0.05   0.02    -0.01  -0.03   0.01    -0.00  -0.00   0.00
    41   1    -0.05  -0.06   0.04    -0.04  -0.03   0.07    -0.01  -0.00   0.02
    42   6     0.03   0.04  -0.02     0.00   0.04   0.00    -0.00   0.01   0.00
    43   6    -0.01   0.01  -0.00     0.01  -0.03   0.01    -0.05   0.16  -0.05
    44   6     0.01  -0.00   0.00    -0.00  -0.01   0.00     0.03   0.02  -0.01
    45   6    -0.00   0.01   0.00    -0.00  -0.02   0.01     0.02   0.13  -0.03
    46   6     0.01  -0.00   0.00    -0.01  -0.00   0.00     0.05  -0.00  -0.00
    47   1     0.01  -0.00  -0.01     0.01  -0.06   0.01    -0.04   0.33  -0.05
    48   6     0.00  -0.00  -0.00     0.01   0.00   0.00    -0.03  -0.01  -0.00
    49   6    -0.00   0.00  -0.01    -0.00   0.01  -0.00    -0.01  -0.04   0.02
    50   1     0.01   0.02   0.05    -0.06   0.03  -0.01     0.29  -0.18  -0.06
    51   6     0.00  -0.01  -0.00     0.00   0.02  -0.00    -0.01  -0.11   0.02
    52   1    -0.03   0.00   0.00     0.09   0.01   0.00    -0.46  -0.04   0.01
    53   1    -0.00   0.01   0.00    -0.01  -0.04  -0.00     0.06   0.23   0.01
    54   1     0.02   0.01  -0.00    -0.04  -0.04   0.02     0.20   0.20  -0.11
    55   6    -0.00   0.00  -0.00     0.01   0.00  -0.00    -0.04  -0.00   0.01
    56   1     0.00  -0.00   0.00    -0.01   0.00   0.00     0.06  -0.01  -0.03
    57   1    -0.00   0.01   0.00    -0.01  -0.00  -0.00     0.08  -0.00   0.01
    58   1    -0.01   0.01   0.00     0.01  -0.02   0.00    -0.09   0.15  -0.03
    59   6     0.01  -0.01   0.00     0.00   0.02  -0.01     0.01  -0.12   0.03
    60   1     0.00  -0.01   0.00    -0.07   0.06  -0.03     0.32  -0.28   0.12
    61   1     0.01  -0.02   0.01    -0.02  -0.03  -0.01     0.07   0.09   0.03
    62   1     0.01  -0.01   0.00    -0.01  -0.02   0.02     0.06   0.09  -0.07
    63   8    -0.00  -0.00   0.00     0.00   0.01  -0.00    -0.01  -0.05   0.02
                    103                    104                    105
                      A                      A                      A
 Frequencies --   1141.4432              1149.3537              1158.2164
 Red. masses --      4.5356                 3.1064                 1.3574
 Frc consts  --      3.4817                 2.4178                 1.0728
 IR Inten    --    106.8325                35.1052                 8.9850
  Atom  AN      X      Y      Z        X      Y      Z        X      Y      Z
     1   6    -0.04   0.03  -0.01    -0.06   0.05  -0.01     0.00  -0.00   0.00
     2   6     0.02   0.02   0.01     0.04   0.03   0.02    -0.00  -0.00  -0.00
     3   6     0.12  -0.01   0.03     0.19  -0.01   0.05    -0.02   0.00  -0.00
     4   6    -0.02  -0.00  -0.00    -0.03  -0.00  -0.01     0.00   0.00   0.00
     5   6    -0.03  -0.00  -0.01    -0.04  -0.01  -0.01     0.00   0.00   0.00
     6   6     0.03  -0.02   0.01     0.03  -0.03   0.01    -0.00   0.00  -0.00
     7   1    -0.19  -0.06  -0.06    -0.25  -0.06  -0.08     0.02   0.00   0.01
     8   1    -0.01   0.04   0.01    -0.03   0.08  -0.03     0.01  -0.01   0.00
     9   1    -0.20  -0.12  -0.10    -0.30  -0.18  -0.13     0.02   0.01   0.01
    10   1    -0.10   0.03  -0.02    -0.12   0.03  -0.02     0.01  -0.00   0.00
    11   1     0.03  -0.15   0.00     0.04  -0.24  -0.00    -0.00   0.01  -0.00
    12   6    -0.07   0.07  -0.01    -0.10   0.13  -0.03     0.01  -0.01   0.00
    13   6    -0.01   0.05  -0.02    -0.00   0.02  -0.01     0.00  -0.00   0.00
    14   6     0.02  -0.03   0.01     0.00  -0.01   0.01     0.00  -0.00  -0.00
    15   6     0.05  -0.02  -0.02     0.05  -0.04  -0.01    -0.00   0.00   0.00
    16   1    -0.01   0.04  -0.04     0.10  -0.04  -0.04    -0.01   0.01   0.00
    17   6     0.01  -0.01   0.00     0.01  -0.04   0.02    -0.00   0.00  -0.00
    18   1     0.05  -0.24   0.10     0.02  -0.23   0.09    -0.00   0.01  -0.01
    19   6    -0.03  -0.00   0.02    -0.03   0.03   0.00     0.00  -0.00   0.00
    20   1     0.08  -0.16   0.04     0.08  -0.22   0.07    -0.01   0.02  -0.01
    21   1     0.01  -0.02  -0.01     0.14  -0.13  -0.01    -0.01   0.01   0.00
    22   1    -0.17  -0.08   0.14    -0.06   0.00   0.03    -0.00  -0.00   0.00
    23  16     0.08  -0.09  -0.06    -0.03   0.04   0.03     0.01  -0.00  -0.01
    24   8    -0.19  -0.02   0.03     0.10   0.01  -0.02    -0.03  -0.00   0.01
    25   8     0.07   0.12   0.10    -0.04  -0.06  -0.05     0.00   0.00   0.00
    26   6    -0.14   0.27  -0.01     0.06  -0.08   0.01     0.02   0.03   0.02
    27   6     0.03   0.05   0.04    -0.01  -0.03  -0.01     0.02  -0.08  -0.01
    28   6    -0.05  -0.02  -0.04     0.00   0.01   0.01    -0.05   0.05  -0.01
    29   6     0.09  -0.05   0.04    -0.04   0.03  -0.02    -0.05   0.07  -0.01
    30   1     0.28  -0.10   0.12    -0.03  -0.02  -0.03     0.38  -0.34   0.12
    31   6    -0.01  -0.08  -0.03     0.01   0.01   0.01     0.02  -0.08  -0.01
    32   1    -0.05  -0.40  -0.13     0.01   0.21   0.04    -0.06   0.41   0.04
    33   6     0.02  -0.03  -0.01    -0.00   0.02   0.01     0.02   0.02   0.02
    34   1     0.11  -0.19  -0.00    -0.05   0.12   0.01    -0.08   0.49   0.11
    35   1     0.06  -0.13  -0.03     0.08  -0.04   0.04     0.36  -0.32   0.09
    36   6    -0.02   0.02   0.01     0.00  -0.01  -0.01    -0.02  -0.02  -0.02
    37   1     0.02  -0.02  -0.01     0.01   0.00   0.01     0.05  -0.01   0.03
    38   1    -0.02   0.05  -0.02    -0.00  -0.00   0.01    -0.04   0.09   0.02
    39   1    -0.01   0.05  -0.01     0.02  -0.04   0.00     0.07  -0.05  -0.00
    40   7    -0.04  -0.04   0.02    -0.06  -0.09   0.02     0.00   0.01  -0.00
    41   1    -0.07  -0.16   0.12    -0.08  -0.09   0.06     0.01   0.01  -0.01
    42   6     0.04   0.06  -0.02     0.04   0.08  -0.02    -0.00  -0.00   0.00
    43   6    -0.03   0.01  -0.00    -0.08   0.04  -0.01     0.01  -0.00   0.00
    44   6     0.02  -0.02   0.01     0.06  -0.06   0.02    -0.00   0.00  -0.00
    45   6    -0.01   0.01   0.00    -0.02   0.03  -0.00     0.00  -0.00  -0.00
    46   6     0.01  -0.01   0.00     0.02  -0.04   0.01    -0.00   0.00  -0.00
    47   1     0.04  -0.10  -0.01     0.12  -0.30   0.00    -0.01   0.03  -0.00
    48   6     0.01  -0.00   0.00     0.02  -0.02   0.00    -0.00  -0.00   0.00
    49   6    -0.02   0.02  -0.02    -0.05   0.06  -0.04     0.00  -0.00   0.00
    50   1    -0.07   0.08   0.09    -0.23   0.20   0.14     0.02  -0.01  -0.01
    51   6     0.00   0.00  -0.00     0.01  -0.01   0.00    -0.00   0.00   0.00
    52   1    -0.00   0.00   0.00    -0.05   0.00   0.00     0.00  -0.00  -0.00
    53   1    -0.00   0.00   0.00     0.01   0.04   0.00     0.00  -0.00  -0.00
    54   1     0.01   0.00   0.00     0.04   0.03  -0.02    -0.00  -0.00   0.00
    55   6    -0.00   0.01  -0.00    -0.01   0.03  -0.01     0.00  -0.00   0.00
    56   1    -0.02   0.02  -0.00    -0.05   0.04   0.00     0.01  -0.00  -0.00
    57   1    -0.02   0.01  -0.00    -0.05   0.03  -0.01     0.00  -0.00   0.00
    58   1    -0.00  -0.00  -0.00    -0.00  -0.00  -0.01    -0.00   0.00  -0.00
    59   6     0.02  -0.00   0.00     0.05  -0.02   0.01    -0.00   0.00  -0.00
    60   1    -0.01   0.01  -0.01    -0.02   0.01  -0.01     0.00  -0.00   0.00
    61   1     0.01  -0.04   0.01     0.04  -0.10   0.02    -0.00   0.01  -0.00
    62   1     0.01  -0.03   0.02     0.03  -0.08   0.04    -0.00   0.00  -0.00
    63   8    -0.00  -0.00   0.00    -0.00  -0.00   0.00     0.00   0.00  -0.00
                    106                    107                    108
                      A                      A                      A
 Frequencies --   1162.2385              1198.0055              1199.1664
 Red. masses --      2.2298                 1.1022                 1.1064
 Frc consts  --      1.7746                 0.9320                 0.9374
 IR Inten    --     22.6462                 0.9358                 0.6383
  Atom  AN      X      Y      Z        X      Y      Z        X      Y      Z
     1   6    -0.02   0.02  -0.01    -0.04  -0.02  -0.01     0.00   0.00   0.00
     2   6     0.01   0.01   0.00     0.02  -0.00   0.01    -0.00   0.00  -0.00
     3   6     0.09  -0.01   0.02     0.00  -0.01   0.00     0.00   0.00   0.00
     4   6    -0.00  -0.00   0.00    -0.01  -0.00  -0.00    -0.00  -0.00  -0.00
     5   6    -0.02  -0.01  -0.01     0.04  -0.02   0.01    -0.00  -0.00  -0.00
     6   6     0.01  -0.01   0.00    -0.00   0.06   0.00     0.00  -0.00  -0.00
     7   1    -0.11  -0.03  -0.04    -0.45  -0.27  -0.15     0.05   0.03   0.02
     8   1    -0.04   0.05   0.00     0.21  -0.11   0.04    -0.03   0.02  -0.01
     9   1    -0.10  -0.07  -0.05    -0.12  -0.07  -0.06    -0.01  -0.01   0.00
    10   1    -0.09   0.03  -0.02     0.41  -0.22   0.11    -0.02   0.01  -0.01
    11   1     0.02  -0.09  -0.00    -0.03   0.61   0.03     0.00  -0.05  -0.00
    12   6    -0.04   0.08  -0.01    -0.00   0.01  -0.00     0.01  -0.00  -0.01
    13   6    -0.01   0.01  -0.00    -0.00   0.00  -0.00     0.01  -0.01  -0.00
    14   6    -0.00  -0.01   0.01    -0.00   0.00  -0.00    -0.01   0.02  -0.01
    15   6     0.03  -0.02  -0.00     0.00   0.00  -0.00    -0.01   0.04  -0.01
    16   1     0.05  -0.01  -0.01     0.01  -0.01  -0.00     0.09  -0.06  -0.02
    17   6     0.00  -0.02   0.01     0.00  -0.01   0.00     0.04  -0.03  -0.01
    18   1     0.02  -0.11   0.08    -0.00   0.02  -0.00    -0.05   0.24  -0.12
    19   6    -0.01   0.01  -0.00    -0.00  -0.00   0.00    -0.04  -0.02   0.04
    20   1     0.04  -0.12   0.03    -0.00   0.02  -0.01    -0.07   0.40  -0.17
    21   1     0.05  -0.06  -0.00     0.05  -0.04  -0.01     0.47  -0.30  -0.10
    22   1    -0.02   0.01   0.01    -0.04  -0.02   0.03    -0.43  -0.24   0.37
    23  16    -0.01   0.01   0.00    -0.00   0.00   0.00    -0.00   0.00   0.00
    24   8     0.02   0.00  -0.00     0.00   0.00  -0.00     0.00   0.00  -0.00
    25   8    -0.01  -0.01  -0.01    -0.00  -0.00  -0.00    -0.00  -0.00  -0.00
    26   6     0.01  -0.01   0.00     0.00  -0.00  -0.00     0.00  -0.00  -0.00
    27   6    -0.00  -0.00  -0.00     0.00   0.00  -0.00    -0.00   0.00  -0.00
    28   6     0.00  -0.00   0.00    -0.00   0.00  -0.00     0.00  -0.00   0.00
    29   6    -0.01   0.00  -0.00    -0.00   0.00   0.00    -0.00  -0.00  -0.00
    30   1    -0.01   0.01  -0.01     0.00   0.00  -0.00    -0.00   0.00  -0.00
    31   6     0.00   0.01   0.00     0.00   0.00   0.00     0.00   0.00   0.00
    32   1     0.00   0.02   0.01    -0.00   0.00   0.00     0.00   0.00  -0.00
    33   6    -0.00   0.00   0.00     0.00  -0.00  -0.00    -0.00   0.00   0.00
    34   1    -0.01   0.01  -0.00     0.00   0.00  -0.00     0.00  -0.00  -0.00
    35   1     0.00   0.00   0.00    -0.00   0.00   0.00     0.00  -0.00   0.00
    36   6     0.00  -0.00  -0.00    -0.00   0.00   0.00     0.00  -0.00  -0.00
    37   1     0.00  -0.00   0.00    -0.00   0.00  -0.00     0.00  -0.00   0.00
    38   1     0.00  -0.01   0.00    -0.00   0.00  -0.00     0.00  -0.00  -0.00
    39   1     0.00  -0.01   0.00    -0.00   0.00  -0.00     0.00  -0.00   0.00
    40   7    -0.03  -0.05   0.02    -0.00  -0.00  -0.00    -0.00  -0.01   0.00
    41   1    -0.04  -0.09   0.06     0.00  -0.00  -0.00    -0.01  -0.01   0.01
    42   6     0.03   0.03  -0.03     0.00  -0.00   0.00    -0.00   0.01  -0.00
    43   6     0.11  -0.07   0.03     0.00  -0.00   0.00    -0.00  -0.00   0.00
    44   6    -0.11   0.10  -0.02    -0.00   0.00  -0.00    -0.00   0.00  -0.00
    45   6     0.02  -0.05   0.02     0.00  -0.00   0.00    -0.00  -0.00   0.00
    46   6    -0.02   0.07  -0.01    -0.00   0.00  -0.00     0.00  -0.00  -0.00
    47   1    -0.22   0.58  -0.05    -0.00   0.01   0.00    -0.01   0.01  -0.00
    48   6    -0.05   0.02  -0.00     0.00   0.00  -0.00    -0.00  -0.00   0.00
    49   6     0.08  -0.12   0.01     0.00  -0.00   0.00     0.00  -0.00  -0.00
    50   1     0.50  -0.27   0.04     0.00  -0.00  -0.00     0.03  -0.01   0.00
    51   6    -0.01   0.01  -0.01    -0.00  -0.00  -0.00     0.00   0.00  -0.00
    52   1     0.08   0.00   0.00    -0.00  -0.00   0.00     0.00   0.00   0.00
    53   1    -0.02  -0.06  -0.00    -0.00  -0.00   0.00     0.00  -0.00  -0.00
    54   1    -0.03  -0.04   0.03    -0.00  -0.00   0.00     0.00   0.00   0.00
    55   6     0.01  -0.05   0.01     0.00  -0.00   0.00    -0.00  -0.00   0.00
    56   1     0.09  -0.07  -0.00     0.00  -0.00   0.00     0.00   0.00  -0.00
    57   1     0.08  -0.04   0.02    -0.00  -0.00  -0.00     0.00   0.00   0.00
    58   1    -0.01   0.01   0.01     0.00  -0.01  -0.00    -0.00   0.00  -0.00
    59   6    -0.07   0.04  -0.02    -0.00   0.00  -0.00     0.00   0.00   0.00
    60   1    -0.01   0.01   0.00     0.00  -0.00   0.00    -0.00   0.00  -0.00
    61   1    -0.05   0.11  -0.02    -0.00   0.00  -0.00    -0.00  -0.00  -0.00
    62   1    -0.06   0.12  -0.05    -0.00   0.00  -0.00     0.00  -0.00   0.00
    63   8     0.00   0.01  -0.00    -0.00  -0.00   0.00    -0.00   0.00  -0.00
                    109                    110                    111
                      A                      A                      A
 Frequencies --   1221.9554              1225.0013              1226.5164
 Red. masses --      2.4679                 1.1697                 1.2197
 Frc consts  --      2.1712                 1.0342                 1.0811
 IR Inten    --     35.6542                 2.9106                 4.1931
  Atom  AN      X      Y      Z        X      Y      Z        X      Y      Z
     1   6    -0.01   0.00  -0.00     0.02   0.01   0.01    -0.02  -0.02  -0.01
     2   6     0.01  -0.00   0.00    -0.03   0.01  -0.01     0.03  -0.02   0.01
     3   6     0.02  -0.00   0.01     0.02  -0.00   0.01    -0.02   0.00  -0.01
     4   6     0.01   0.01   0.00    -0.03  -0.01  -0.01     0.04   0.02   0.01
     5   6    -0.01  -0.00  -0.00     0.02  -0.01   0.00    -0.03   0.02  -0.01
     6   6    -0.00  -0.00  -0.00     0.01   0.00   0.00    -0.01  -0.00  -0.00
     7   1    -0.06  -0.03  -0.02     0.20   0.13   0.07    -0.24  -0.15  -0.08
     8   1     0.03  -0.01   0.02    -0.26   0.14  -0.06     0.30  -0.16   0.06
     9   1     0.07   0.04   0.03    -0.25  -0.15  -0.10     0.29   0.18   0.12
    10   1    -0.10   0.05  -0.03     0.25  -0.14   0.07    -0.30   0.16  -0.08
    11   1    -0.00  -0.01   0.00     0.01   0.03   0.00    -0.01  -0.03  -0.00
    12   6    -0.01   0.02  -0.01     0.00  -0.01   0.01    -0.00   0.02  -0.01
    13   6     0.01  -0.01  -0.00    -0.01   0.01   0.00     0.02  -0.02  -0.00
    14   6    -0.00  -0.00   0.00     0.00   0.01  -0.01    -0.00  -0.01   0.01
    15   6     0.00   0.00  -0.00     0.00  -0.01   0.00    -0.00   0.02  -0.01
    16   1     0.07  -0.04  -0.01    -0.10   0.07   0.02     0.15  -0.10  -0.03
    17   6    -0.00  -0.01   0.01     0.01  -0.00  -0.00    -0.01   0.00   0.01
    18   1     0.01  -0.06   0.03    -0.01   0.13  -0.05     0.02  -0.18   0.07
    19   6    -0.00   0.00   0.00     0.00  -0.00  -0.00    -0.01   0.00   0.00
    20   1    -0.01   0.07  -0.03     0.02  -0.15   0.06    -0.03   0.20  -0.09
    21   1     0.01  -0.02   0.00     0.06  -0.04  -0.02    -0.09   0.05   0.02
    22   1    -0.02  -0.01   0.02     0.02   0.01  -0.02    -0.02  -0.01   0.02
    23  16    -0.00   0.01  -0.00    -0.00   0.01  -0.00    -0.00   0.00   0.00
    24   8    -0.00  -0.00   0.00     0.00  -0.00   0.00     0.01   0.00  -0.00
    25   8    -0.00  -0.00  -0.00    -0.00  -0.00  -0.00    -0.00  -0.00  -0.00
    26   6     0.00  -0.01   0.00     0.01  -0.02  -0.00     0.01  -0.02  -0.00
    27   6     0.02  -0.01   0.01     0.03  -0.01   0.02     0.02  -0.01   0.01
    28   6     0.00  -0.02  -0.01    -0.00  -0.04  -0.02    -0.00  -0.03  -0.01
    29   6    -0.00   0.02   0.00    -0.00   0.04   0.01    -0.00   0.03   0.01
    30   1     0.13  -0.09   0.05     0.25  -0.17   0.10     0.19  -0.12   0.08
    31   6    -0.01   0.01  -0.00    -0.03   0.03  -0.01    -0.02   0.02  -0.01
    32   1    -0.00  -0.16  -0.03     0.00  -0.32  -0.07    -0.00  -0.24  -0.05
    33   6     0.01  -0.01   0.00     0.02  -0.03   0.00     0.02  -0.03   0.00
    34   1    -0.01   0.20   0.06    -0.02   0.38   0.11    -0.02   0.31   0.09
    35   1    -0.18   0.13  -0.05    -0.36   0.25  -0.11    -0.29   0.20  -0.09
    36   6    -0.00   0.00  -0.00    -0.00   0.01  -0.00    -0.01   0.01  -0.00
    37   1    -0.01   0.01  -0.00    -0.02   0.02  -0.00    -0.01   0.02  -0.00
    38   1    -0.01   0.01   0.01    -0.01   0.03   0.01    -0.01   0.03   0.01
    39   1    -0.01   0.01  -0.00    -0.03   0.02  -0.00    -0.03   0.02  -0.00
    40   7     0.00   0.00   0.00     0.01   0.01  -0.00    -0.01  -0.01   0.00
    41   1    -0.01  -0.03   0.04     0.00  -0.01   0.01    -0.00   0.01  -0.01
    42   6     0.00  -0.02  -0.01    -0.02  -0.01   0.00     0.02  -0.00   0.00
    43   6     0.15   0.04  -0.00    -0.01  -0.00   0.00    -0.03  -0.01  -0.00
    44   6     0.04  -0.01   0.00    -0.00   0.00  -0.00    -0.01   0.00  -0.00
    45   6     0.23   0.04   0.00    -0.02  -0.00  -0.00    -0.05  -0.01  -0.00
    46   6    -0.11   0.03  -0.00     0.01  -0.00   0.00     0.02  -0.00  -0.00
    47   1     0.05  -0.08  -0.01    -0.00   0.01   0.00    -0.00  -0.01   0.00
    48   6    -0.05   0.03  -0.01     0.00  -0.00  -0.00     0.01  -0.00   0.00
    49   6    -0.09  -0.07   0.02     0.01   0.01  -0.00     0.02   0.02  -0.00
    50   1    -0.66   0.09  -0.08     0.07  -0.01  -0.00     0.13  -0.01   0.03
    51   6    -0.10  -0.02  -0.00     0.01   0.00  -0.00     0.02   0.01  -0.00
    52   1    -0.16  -0.02  -0.01     0.01   0.00   0.00     0.03   0.00   0.00
    53   1    -0.13  -0.06   0.01     0.01   0.00  -0.00     0.03   0.01  -0.00
    54   1    -0.15  -0.07   0.00     0.01   0.01   0.00     0.03   0.01   0.00
    55   6     0.05  -0.01  -0.00    -0.00   0.00  -0.00    -0.01   0.00  -0.00
    56   1    -0.02  -0.02   0.04    -0.00   0.00  -0.00     0.01   0.00  -0.00
    57   1    -0.03  -0.05  -0.01     0.00   0.01   0.00     0.00   0.01   0.00
    58   1     0.10  -0.16   0.02    -0.01   0.01   0.00    -0.02   0.03  -0.01
    59   6    -0.06  -0.01  -0.00     0.01   0.00  -0.00     0.01   0.00   0.00
    60   1     0.12  -0.09   0.04    -0.01   0.01  -0.00    -0.02   0.02  -0.01
    61   1     0.02   0.18   0.01    -0.00  -0.02  -0.00    -0.00  -0.04  -0.00
    62   1     0.01   0.16  -0.11    -0.00  -0.01   0.01    -0.00  -0.04   0.02
    63   8     0.01  -0.00   0.00    -0.00  -0.00   0.00    -0.00  -0.00   0.00
                    112                    113                    114
                      A                      A                      A
 Frequencies --   1234.1902              1237.1969              1260.5870
 Red. masses --      1.1567                 3.0010                 2.6524
 Frc consts  --      1.0381                 2.7064                 2.4834
 IR Inten    --      0.6874                 3.1698                14.5653
  Atom  AN      X      Y      Z        X      Y      Z        X      Y      Z
     1   6     0.01   0.01   0.00    -0.00  -0.00  -0.00    -0.00   0.00  -0.00
     2   6    -0.02   0.01  -0.01     0.00  -0.00   0.00     0.00  -0.00   0.00
     3   6     0.00  -0.01  -0.00    -0.00   0.00  -0.00     0.00  -0.00   0.00
     4   6    -0.03  -0.01  -0.01     0.00   0.00   0.00     0.00   0.00   0.00
     5   6     0.02  -0.01   0.00    -0.00   0.00  -0.00    -0.00   0.00  -0.00
     6   6     0.01   0.00   0.00    -0.00   0.00  -0.00    -0.00  -0.00  -0.00
     7   1     0.15   0.09   0.05    -0.03  -0.02  -0.01    -0.02  -0.01  -0.01
     8   1    -0.20   0.11  -0.05     0.03  -0.02   0.01     0.01  -0.00   0.00
     9   1    -0.18  -0.11  -0.09     0.03   0.02   0.01    -0.01  -0.00   0.00
    10   1     0.21  -0.11   0.06    -0.03   0.01  -0.01    -0.00  -0.00  -0.00
    11   1     0.01   0.02   0.00    -0.00  -0.00  -0.00    -0.00   0.01   0.00
    12   6    -0.01   0.02  -0.01     0.00  -0.01   0.00     0.00  -0.02   0.00
    13   6     0.05  -0.05  -0.01    -0.00   0.00   0.00     0.00  -0.00  -0.00
    14   6     0.00  -0.04   0.02     0.00  -0.00   0.00     0.00  -0.00   0.00
    15   6    -0.01   0.04  -0.01    -0.00   0.00   0.00    -0.00   0.00   0.00
    16   1     0.38  -0.26  -0.08    -0.01   0.01   0.00     0.00  -0.00  -0.00
    17   6    -0.03   0.01   0.01     0.00   0.00  -0.00     0.00   0.00  -0.00
    18   1     0.07  -0.40   0.20    -0.00   0.01  -0.01    -0.00  -0.01  -0.01
    19   6    -0.01   0.01   0.00     0.00  -0.00   0.00    -0.00  -0.00   0.00
    20   1    -0.08   0.46  -0.20    -0.00  -0.00   0.00    -0.01   0.02  -0.01
    21   1    -0.28   0.17   0.06    -0.00   0.00  -0.00    -0.03   0.02   0.01
    22   1    -0.03   0.00   0.01    -0.00  -0.00   0.00    -0.00  -0.00   0.00
    23  16     0.00   0.00  -0.00     0.00  -0.00  -0.00     0.00   0.00   0.00
    24   8    -0.00  -0.00   0.00    -0.01  -0.00   0.00    -0.00   0.00  -0.00
    25   8     0.00  -0.00   0.00     0.00   0.01   0.00    -0.00  -0.00  -0.00
    26   6    -0.00  -0.00   0.00    -0.01   0.00  -0.01     0.00   0.00   0.00
    27   6    -0.00  -0.00  -0.00     0.01  -0.11  -0.03     0.00  -0.00  -0.00
    28   6     0.00   0.00   0.00     0.10  -0.06   0.04     0.00  -0.00  -0.00
    29   6    -0.00  -0.00  -0.00    -0.03   0.07   0.00    -0.00   0.00  -0.00
    30   1    -0.01   0.00  -0.00     0.31  -0.34   0.08     0.01  -0.01   0.00
    31   6     0.00   0.00   0.00    -0.04   0.07   0.00    -0.00   0.00  -0.00
    32   1     0.00   0.01   0.00     0.11  -0.53  -0.04     0.00  -0.02  -0.01
    33   6    -0.00   0.01  -0.00    -0.18   0.30  -0.01    -0.00   0.00   0.00
    34   1     0.00  -0.02  -0.01    -0.02  -0.26  -0.10    -0.00   0.01   0.00
    35   1     0.02  -0.01   0.01     0.15  -0.03   0.05    -0.01   0.01  -0.01
    36   6     0.00  -0.00   0.00     0.07  -0.12   0.00     0.00  -0.00  -0.00
    37   1     0.00  -0.00  -0.00     0.11  -0.18  -0.02     0.00  -0.00   0.00
    38   1     0.00  -0.01  -0.00     0.10  -0.28  -0.02     0.00  -0.00  -0.00
    39   1     0.00  -0.00   0.00     0.13  -0.21   0.04     0.00  -0.00   0.00
    40   7     0.00   0.00   0.00    -0.00   0.00  -0.00    -0.00  -0.00  -0.00
    41   1    -0.01   0.02   0.02    -0.01  -0.02   0.02    -0.01  -0.03   0.02
    42   6    -0.00  -0.01   0.01     0.00   0.01  -0.00     0.00   0.02  -0.01
    43   6    -0.00  -0.00   0.00    -0.01   0.00  -0.00     0.16  -0.06   0.03
    44   6    -0.00   0.00   0.00     0.00   0.00  -0.00    -0.02  -0.08   0.02
    45   6    -0.00  -0.00   0.00    -0.00  -0.00   0.00    -0.07   0.01  -0.01
    46   6    -0.00   0.00   0.00     0.00   0.00   0.00     0.20  -0.18   0.03
    47   1    -0.00   0.00  -0.00     0.00  -0.01   0.00    -0.16   0.57  -0.08
    48   6     0.00  -0.00   0.00     0.00  -0.00  -0.00    -0.12   0.04  -0.00
    49   6     0.00  -0.00  -0.00     0.00   0.00   0.00    -0.01   0.07  -0.02
    50   1     0.02   0.00   0.02     0.02  -0.00  -0.00    -0.44   0.25   0.01
    51   6     0.00   0.00  -0.00     0.00   0.00  -0.00     0.02  -0.02   0.01
    52   1     0.00   0.00   0.00     0.00   0.00   0.00     0.00  -0.01   0.01
    53   1     0.00  -0.00  -0.00     0.00  -0.00  -0.00     0.07   0.06  -0.00
    54   1     0.00  -0.00   0.00     0.00  -0.00   0.00     0.08   0.06  -0.02
    55   6     0.00  -0.00  -0.00    -0.00   0.00  -0.00    -0.06   0.06  -0.01
    56   1    -0.00   0.00  -0.00     0.00  -0.00   0.01    -0.14   0.11  -0.03
    57   1     0.00   0.00   0.00     0.01  -0.00  -0.00    -0.11   0.13   0.01
    58   1     0.00   0.00   0.00     0.00  -0.01   0.01    -0.13   0.26  -0.04
    59   6     0.00   0.00  -0.00     0.00  -0.00   0.00    -0.05   0.01  -0.01
    60   1    -0.00   0.00  -0.00    -0.00   0.00  -0.00    -0.03   0.01  -0.01
    61   1     0.00  -0.00   0.00     0.00  -0.01   0.00    -0.03   0.17  -0.03
    62   1    -0.00  -0.00   0.00     0.00  -0.01   0.00    -0.02   0.16  -0.07
    63   8     0.00   0.00  -0.00    -0.00  -0.00   0.00     0.02  -0.00  -0.00
                    115                    116                    117
                      A                      A                      A
 Frequencies --   1277.1003              1294.9509              1317.4557
 Red. masses --      3.4115                 4.9386                 3.1863
 Frc consts  --      3.2783                 4.8794                 3.2584
 IR Inten    --     37.4729                38.7869                 7.1316
  Atom  AN      X      Y      Z        X      Y      Z        X      Y      Z
     1   6    -0.02   0.00  -0.01     0.03  -0.06   0.00     0.01  -0.00   0.00
     2   6     0.04  -0.03   0.01    -0.02  -0.00  -0.01    -0.00   0.00  -0.00
     3   6     0.06   0.08   0.03    -0.25   0.08  -0.05    -0.02  -0.01  -0.00
     4   6    -0.01  -0.02  -0.01    -0.07  -0.06  -0.02    -0.00  -0.00  -0.00
     5   6    -0.00  -0.02  -0.00     0.07   0.03   0.02     0.00   0.01   0.00
     6   6    -0.00   0.00  -0.00     0.00   0.02   0.00     0.00  -0.00  -0.00
     7   1    -0.07  -0.02  -0.02     0.34   0.13   0.11     0.01   0.00   0.00
     8   1     0.19  -0.11   0.04     0.25  -0.15   0.05     0.00  -0.00   0.01
     9   1    -0.23  -0.16  -0.08    -0.04  -0.03  -0.03     0.02   0.02   0.01
    10   1    -0.10   0.03  -0.02     0.25  -0.06   0.07     0.03  -0.01   0.01
    11   1     0.00  -0.09  -0.01     0.01  -0.06  -0.00     0.00   0.00   0.00
    12   6     0.14  -0.23   0.04     0.07   0.06  -0.10    -0.01   0.00  -0.00
    13   6     0.03  -0.02  -0.00    -0.07   0.03   0.03     0.00  -0.00   0.00
    14   6     0.01  -0.06   0.01    -0.01  -0.04   0.03    -0.00   0.01  -0.00
    15   6    -0.06   0.03   0.02     0.01  -0.04   0.02     0.00   0.00  -0.00
    16   1    -0.18   0.10   0.03    -0.27   0.13   0.04    -0.01  -0.00  -0.00
    17   6     0.01   0.07  -0.04    -0.03   0.01   0.02     0.00  -0.00  -0.00
    18   1     0.01   0.15  -0.05     0.02  -0.27   0.12    -0.00  -0.01   0.00
    19   6     0.00  -0.01   0.00     0.02   0.01  -0.02    -0.00  -0.00   0.00
    20   1    -0.09   0.21  -0.06     0.00  -0.01  -0.00     0.00  -0.02   0.01
    21   1    -0.27   0.25   0.02     0.10  -0.08  -0.02    -0.00  -0.00  -0.00
    22   1    -0.02  -0.01   0.02    -0.08  -0.05   0.07     0.01   0.00  -0.00
    23  16     0.02   0.02   0.02    -0.06  -0.04  -0.01    -0.03  -0.02  -0.01
    24   8    -0.02  -0.00  -0.00     0.10   0.02  -0.02     0.03   0.01  -0.00
    25   8    -0.03  -0.04  -0.03     0.05   0.07   0.06     0.02   0.03   0.02
    26   6     0.01  -0.00   0.00     0.01   0.02   0.01    -0.00   0.00  -0.00
    27   6    -0.00   0.01  -0.00     0.00  -0.00   0.00     0.01  -0.01   0.00
    28   6    -0.01  -0.01  -0.00    -0.01  -0.01  -0.01    -0.00   0.01   0.00
    29   6    -0.00  -0.00  -0.00    -0.00  -0.00  -0.00    -0.00   0.00   0.00
    30   1    -0.00   0.01  -0.00     0.02  -0.01   0.00    -0.02   0.01  -0.01
    31   6    -0.00   0.00  -0.00    -0.01   0.01  -0.00     0.00  -0.00   0.00
    32   1     0.00  -0.01  -0.02    -0.01  -0.08  -0.02    -0.00  -0.02  -0.00
    33   6     0.01  -0.01   0.00     0.00   0.00   0.00    -0.01  -0.00  -0.01
    34   1    -0.00   0.02   0.00    -0.01   0.09   0.02    -0.00   0.04   0.01
    35   1    -0.03   0.02  -0.01     0.00  -0.00  -0.00     0.03  -0.02   0.01
    36   6    -0.00   0.00  -0.00    -0.00   0.00  -0.00     0.00   0.00   0.00
    37   1    -0.00   0.01   0.00     0.00  -0.00   0.00    -0.01  -0.00  -0.01
    38   1    -0.00   0.01   0.00    -0.00   0.00   0.00     0.00  -0.01  -0.00
    39   1    -0.00   0.00  -0.00    -0.00  -0.00   0.00    -0.01   0.00   0.00
    40   7    -0.05  -0.06  -0.00    -0.12  -0.16   0.08    -0.00  -0.00   0.00
    41   1    -0.16  -0.41   0.39     0.01   0.11  -0.29     0.02   0.06  -0.06
    42   6    -0.06   0.29  -0.08     0.32   0.17  -0.04     0.02  -0.00   0.01
    43   6    -0.02   0.00  -0.00     0.02  -0.00  -0.00    -0.13   0.05  -0.02
    44   6     0.00   0.00  -0.00    -0.01   0.01   0.00     0.10  -0.08   0.00
    45   6     0.04  -0.01   0.01    -0.01   0.03  -0.00     0.21  -0.17   0.05
    46   6    -0.01   0.01  -0.00    -0.01   0.01   0.00     0.03  -0.06   0.01
    47   1     0.01  -0.02   0.00    -0.00  -0.04  -0.01     0.01   0.36  -0.06
    48   6    -0.01   0.00  -0.00     0.02  -0.01   0.00    -0.20   0.07  -0.02
    49   6    -0.01  -0.00   0.00     0.01  -0.02   0.00    -0.08   0.10  -0.01
    50   1     0.06  -0.02   0.02    -0.15   0.05   0.04     0.57  -0.12   0.01
    51   6    -0.01   0.00  -0.00    -0.00  -0.01   0.00    -0.03   0.06  -0.02
    52   1    -0.01   0.00  -0.00    -0.01  -0.00   0.01    -0.01   0.04  -0.04
    53   1    -0.03  -0.03   0.00     0.00   0.03   0.00    -0.13  -0.28  -0.00
    54   1    -0.04  -0.03   0.01     0.01   0.02  -0.01    -0.20  -0.23   0.13
    55   6     0.01  -0.00   0.00     0.00  -0.01   0.00     0.01   0.03  -0.01
    56   1     0.01  -0.00   0.00     0.01  -0.01  -0.00    -0.09   0.04   0.02
    57   1     0.00  -0.01  -0.00     0.00  -0.01   0.00    -0.07   0.01  -0.01
    58   1     0.01  -0.02  -0.00     0.00  -0.01  -0.00     0.00   0.03  -0.01
    59   6     0.00   0.00   0.00    -0.01  -0.00   0.00     0.04   0.03  -0.01
    60   1     0.01  -0.00  -0.01    -0.00  -0.01  -0.00     0.08  -0.00   0.02
    61   1    -0.00  -0.02   0.00     0.00   0.03  -0.00     0.01  -0.21   0.03
    62   1     0.01  -0.02   0.00     0.01   0.03  -0.02     0.01  -0.20   0.10
    63   8     0.00   0.00   0.00    -0.00  -0.00   0.00     0.03   0.02  -0.01
                    118                    119                    120
                      A                      A                      A
 Frequencies --   1323.3262              1339.1057              1343.2514
 Red. masses --      4.7727                 3.0459                 1.5015
 Frc consts  --      4.9244                 3.2181                 1.5962
 IR Inten    --     85.0469                43.0851                 5.7921
  Atom  AN      X      Y      Z        X      Y      Z        X      Y      Z
     1   6     0.05   0.02   0.02    -0.06  -0.06  -0.02     0.01   0.01   0.00
     2   6    -0.04   0.04  -0.01     0.03  -0.04   0.01    -0.01   0.01  -0.00
     3   6    -0.07  -0.13  -0.03    -0.05   0.17  -0.01     0.01  -0.03   0.00
     4   6     0.00   0.03   0.00    -0.04  -0.05  -0.02     0.01   0.01   0.00
     5   6    -0.03   0.05  -0.00     0.08  -0.04   0.02    -0.02   0.01  -0.00
     6   6     0.00  -0.03  -0.00    -0.00   0.05   0.00     0.00  -0.01  -0.00
     7   1    -0.04  -0.04  -0.01     0.25   0.12   0.08    -0.05  -0.02  -0.01
     8   1    -0.16   0.11  -0.03     0.27  -0.17   0.06    -0.05   0.03  -0.01
     9   1     0.22   0.16   0.08    -0.19  -0.14  -0.07     0.02   0.02   0.01
    10   1     0.24  -0.09   0.05    -0.16   0.09  -0.03     0.03  -0.02   0.00
    11   1     0.00   0.02   0.00     0.00   0.01   0.00     0.00  -0.00  -0.00
    12   6     0.12   0.10  -0.14    -0.14  -0.01   0.08     0.03  -0.00  -0.02
    13   6    -0.09   0.03   0.03     0.04  -0.01  -0.02    -0.01   0.00   0.00
    14   6    -0.01  -0.06   0.04     0.00   0.06  -0.03    -0.00  -0.02   0.01
    15   6     0.01  -0.08   0.04     0.01   0.07  -0.04    -0.00  -0.02   0.01
    16   1    -0.29   0.16   0.09     0.23  -0.12  -0.05    -0.05   0.03   0.01
    17   6    -0.08   0.03   0.03     0.06  -0.05  -0.01    -0.02   0.01   0.00
    18   1     0.02  -0.31   0.15    -0.01   0.12  -0.07     0.00  -0.02   0.01
    19   6     0.04   0.02  -0.04    -0.04  -0.02   0.03     0.01   0.01  -0.01
    20   1    -0.02   0.12  -0.05     0.05  -0.20   0.08    -0.01   0.05  -0.02
    21   1     0.22  -0.17  -0.04    -0.11   0.06   0.03     0.02  -0.01  -0.01
    22   1    -0.05  -0.03   0.05     0.01   0.00  -0.01    -0.00  -0.00   0.00
    23  16     0.15   0.09   0.05     0.07   0.04   0.03    -0.03  -0.02  -0.01
    24   8    -0.18  -0.03   0.02    -0.08  -0.01   0.01     0.04   0.00  -0.00
    25   8    -0.11  -0.14  -0.12    -0.05  -0.06  -0.05     0.02   0.03   0.02
    26   6     0.02   0.00   0.01    -0.00  -0.01  -0.00    -0.11  -0.06  -0.08
    27   6    -0.04   0.03  -0.02    -0.05   0.04  -0.02     0.00   0.02   0.01
    28   6    -0.00  -0.04  -0.01     0.00  -0.06  -0.01     0.01  -0.00   0.01
    29   6    -0.00  -0.02  -0.01    -0.00  -0.02  -0.01     0.01   0.06   0.02
    30   1     0.04  -0.03   0.02     0.21  -0.15   0.09     0.39  -0.26   0.15
    31   6    -0.02   0.01  -0.01    -0.01   0.01  -0.01     0.05  -0.03   0.02
    32   1     0.01   0.08   0.00    -0.00   0.27   0.05    -0.00   0.50   0.11
    33   6     0.04   0.02   0.03     0.08   0.04   0.06     0.03   0.01   0.02
    34   1     0.01  -0.15  -0.04     0.01  -0.29  -0.08     0.04  -0.46  -0.12
    35   1    -0.10   0.07  -0.03    -0.22   0.15  -0.07    -0.35   0.25  -0.10
    36   6    -0.01  -0.01  -0.01    -0.02  -0.01  -0.02    -0.01  -0.00  -0.01
    37   1     0.04   0.01   0.04     0.07   0.02   0.07     0.04   0.01   0.04
    38   1    -0.02   0.04   0.02    -0.04   0.06   0.03    -0.02   0.02   0.02
    39   1     0.05  -0.02  -0.00     0.09  -0.03  -0.01     0.05  -0.01  -0.01
    40   7    -0.02  -0.00  -0.03    -0.03  -0.01   0.00     0.00  -0.00   0.00
    41   1    -0.08  -0.30   0.23     0.03   0.09  -0.17    -0.00  -0.00   0.01
    42   6     0.10   0.00   0.04     0.10  -0.05   0.01    -0.03   0.02  -0.01
    43   6    -0.03   0.01  -0.01    -0.01   0.00  -0.00     0.00  -0.00   0.00
    44   6     0.01  -0.01   0.00     0.01  -0.01   0.00    -0.00   0.00   0.00
    45   6     0.03  -0.03   0.01     0.02  -0.01   0.00    -0.00   0.00  -0.00
    46   6     0.02  -0.01   0.00    -0.01  -0.00   0.00     0.00   0.00  -0.00
    47   1     0.02  -0.01   0.01    -0.01   0.08  -0.02     0.00  -0.01   0.00
    48   6    -0.03   0.01  -0.00    -0.01   0.00  -0.00    -0.00  -0.00   0.00
    49   6    -0.01   0.02   0.01    -0.00   0.00  -0.00    -0.00   0.00  -0.00
    50   1     0.08  -0.02  -0.01     0.02  -0.00   0.01     0.00   0.00   0.00
    51   6    -0.00   0.01  -0.00    -0.00   0.00  -0.00     0.00  -0.00   0.00
    52   1    -0.00   0.01  -0.01     0.00   0.00   0.00    -0.00  -0.00  -0.00
    53   1    -0.01  -0.04  -0.00    -0.00  -0.02  -0.00    -0.00   0.00   0.00
    54   1    -0.03  -0.04   0.02    -0.01  -0.02   0.02    -0.00   0.00  -0.00
    55   6    -0.00   0.00  -0.00     0.00   0.00  -0.00    -0.00   0.00  -0.00
    56   1    -0.01   0.01  -0.00    -0.01  -0.00   0.01     0.00  -0.00   0.00
    57   1    -0.01   0.01   0.00    -0.01  -0.01  -0.00     0.00  -0.00  -0.00
    58   1    -0.01   0.02  -0.00     0.01  -0.01  -0.01     0.00   0.00   0.00
    59   6     0.01   0.00   0.00     0.00   0.00  -0.00    -0.00  -0.00  -0.00
    60   1     0.02  -0.01  -0.01     0.01  -0.00   0.01    -0.00   0.00  -0.00
    61   1     0.00  -0.04   0.01     0.00  -0.01   0.00     0.00   0.00   0.00
    62   1     0.01  -0.03   0.01     0.00  -0.02   0.01     0.00   0.00  -0.00
    63   8     0.00   0.00  -0.00     0.00   0.00  -0.00     0.00  -0.00  -0.00
                    121                    122                    123
                      A                      A                      A
 Frequencies --   1354.2190              1358.5366              1371.6733
 Red. masses --      4.7543                 6.3725                 1.7975
 Frc consts  --      5.1371                 6.9295                 1.9926
 IR Inten    --      7.3978                19.1993                 2.0601
  Atom  AN      X      Y      Z        X      Y      Z        X      Y      Z
     1   6    -0.11  -0.07  -0.04    -0.08  -0.02  -0.02    -0.05  -0.02  -0.01
     2   6     0.08  -0.06   0.02     0.06  -0.05   0.02     0.13  -0.06   0.03
     3   6     0.04   0.23   0.01     0.09   0.12   0.03     0.00   0.01   0.00
     4   6    -0.06  -0.05  -0.02    -0.02  -0.02  -0.01    -0.11  -0.06  -0.04
     5   6     0.11  -0.08   0.02     0.05  -0.06   0.01     0.05  -0.02   0.01
     6   6    -0.00   0.08   0.00    -0.00   0.05   0.00    -0.01   0.14   0.01
     7   1     0.22   0.14   0.07     0.04   0.05   0.02    -0.21  -0.12  -0.07
     8   1     0.21  -0.14   0.04     0.04  -0.03   0.01    -0.45   0.27  -0.10
     9   1    -0.28  -0.20  -0.12    -0.18  -0.12  -0.08     0.44   0.29   0.17
    10   1    -0.33   0.15  -0.07    -0.25   0.10  -0.05     0.19  -0.10   0.05
    11   1    -0.00   0.01  -0.00    -0.00  -0.01  -0.00     0.01  -0.39  -0.03
    12   6     0.11   0.09  -0.08     0.15   0.06  -0.09    -0.00  -0.01   0.00
    13   6    -0.08   0.04   0.02    -0.07   0.04   0.02     0.03  -0.02  -0.00
    14   6     0.00  -0.07   0.03     0.01  -0.09   0.04    -0.01   0.04  -0.02
    15   6     0.01  -0.10   0.05     0.00  -0.12   0.06    -0.00   0.02  -0.01
    16   1    -0.09   0.05   0.04    -0.13   0.07   0.04    -0.15   0.09   0.04
    17   6    -0.09   0.05   0.03    -0.11   0.07   0.02     0.02  -0.01  -0.00
    18   1     0.03  -0.13   0.09     0.03  -0.09   0.07     0.01  -0.12   0.05
    19   6     0.05   0.03  -0.05     0.06   0.04  -0.06    -0.03  -0.02   0.03
    20   1    -0.03   0.18  -0.08    -0.06   0.26  -0.11    -0.01   0.04  -0.02
    21   1     0.20  -0.14  -0.04     0.19  -0.13  -0.05     0.05  -0.03  -0.01
    22   1    -0.02  -0.01   0.02    -0.01  -0.00   0.01     0.08   0.04  -0.06
    23  16     0.03   0.02   0.01    -0.06  -0.04  -0.03    -0.00  -0.00  -0.00
    24   8    -0.03  -0.01   0.01     0.05   0.01  -0.00     0.00   0.00  -0.00
    25   8    -0.02  -0.02  -0.02     0.05   0.05   0.05     0.00   0.00   0.00
    26   6    -0.11  -0.06  -0.08     0.17   0.09   0.13    -0.00   0.00  -0.00
    27   6     0.10  -0.06   0.05    -0.15   0.08  -0.07     0.00  -0.00   0.00
    28   6     0.00   0.12   0.04    -0.00  -0.17  -0.05    -0.00   0.00   0.00
    29   6     0.02   0.11   0.04    -0.02  -0.17  -0.06    -0.00   0.00   0.00
    30   1    -0.11   0.10  -0.04     0.11  -0.12   0.05     0.00  -0.00   0.00
    31   6     0.10  -0.05   0.04    -0.15   0.08  -0.07     0.00  -0.00   0.00
    32   1     0.01  -0.10  -0.01    -0.02   0.13   0.02    -0.00   0.01   0.00
    33   6    -0.14  -0.09  -0.11     0.20   0.13   0.16     0.00  -0.00   0.00
    34   1     0.02   0.04   0.03    -0.04  -0.02  -0.03     0.00  -0.01  -0.00
    35   1     0.05  -0.01   0.03    -0.01  -0.03  -0.02    -0.01   0.00  -0.00
    36   6     0.03   0.02   0.03    -0.04  -0.04  -0.04    -0.00  -0.00  -0.00
    37   1    -0.12  -0.03  -0.12     0.16   0.05   0.18     0.00   0.00   0.00
    38   1     0.06  -0.10  -0.05    -0.08   0.15   0.07    -0.00   0.00   0.00
    39   1    -0.13   0.04   0.02     0.19  -0.04  -0.04     0.00   0.00  -0.00
    40   7     0.02   0.03  -0.02     0.05   0.04  -0.00    -0.00  -0.00  -0.00
    41   1     0.01   0.02   0.01     0.05   0.16  -0.06    -0.01  -0.03   0.03
    42   6    -0.07  -0.12   0.03    -0.18  -0.09   0.01    -0.00   0.01  -0.00
    43   6    -0.01   0.00  -0.00    -0.00   0.00   0.00     0.00  -0.00   0.00
    44   6     0.01  -0.01  -0.00     0.01  -0.00  -0.00     0.00  -0.00  -0.00
    45   6    -0.00  -0.01   0.00    -0.00  -0.00  -0.00    -0.00   0.00   0.00
    46   6    -0.00  -0.01   0.00    -0.01  -0.01   0.00    -0.01  -0.00   0.00
    47   1    -0.01   0.07  -0.01    -0.00   0.06  -0.01    -0.00   0.03  -0.00
    48   6    -0.00   0.01  -0.00     0.00  -0.00   0.00     0.00  -0.00   0.00
    49   6    -0.00   0.01  -0.00     0.00   0.01  -0.00     0.00   0.00  -0.00
    50   1     0.01  -0.00  -0.03     0.01  -0.00  -0.03     0.00   0.00   0.00
    51   6    -0.00   0.00  -0.00     0.00   0.00   0.00    -0.00  -0.00  -0.00
    52   1     0.01   0.00   0.00     0.01  -0.00  -0.00     0.01  -0.00   0.00
    53   1     0.01  -0.00  -0.00     0.00   0.00   0.00     0.01   0.00  -0.00
    54   1     0.01   0.00   0.01     0.00   0.00  -0.00     0.01   0.01   0.00
    55   6     0.00   0.01  -0.00     0.00   0.00   0.00     0.00  -0.00  -0.00
    56   1    -0.01  -0.00   0.02    -0.02   0.01   0.00    -0.01   0.01  -0.00
    57   1    -0.01  -0.01  -0.01    -0.02   0.00  -0.00    -0.00   0.01   0.00
    58   1     0.01  -0.01   0.01     0.00   0.00  -0.01     0.00  -0.00   0.00
    59   6     0.00  -0.00   0.00     0.00  -0.00  -0.00    -0.00  -0.00  -0.00
    60   1    -0.00   0.00   0.00    -0.01   0.00   0.00    -0.00   0.00   0.00
    61   1     0.00  -0.01  -0.00    -0.00  -0.00  -0.00     0.00   0.00  -0.00
    62   1    -0.00  -0.00   0.00    -0.01   0.00   0.01     0.00   0.00  -0.00
    63   8     0.00  -0.00  -0.00     0.00   0.00  -0.00     0.00   0.00  -0.00
                    124                    125                    126
                      A                      A                      A
 Frequencies --   1377.2676              1392.9660              1413.5068
 Red. masses --      1.5121                 2.0078                 1.2773
 Frc consts  --      1.6899                 2.2954                 1.5036
 IR Inten    --      2.2877                 2.5704                13.8436
  Atom  AN      X      Y      Z        X      Y      Z        X      Y      Z
     1   6    -0.00  -0.00  -0.00     0.01   0.01   0.00     0.00   0.00   0.00
     2   6     0.03  -0.01   0.01    -0.01   0.01  -0.00    -0.00   0.00  -0.00
     3   6    -0.01  -0.01  -0.00     0.00  -0.01  -0.00     0.00  -0.00   0.00
     4   6    -0.03  -0.01  -0.01     0.01   0.01   0.00     0.00   0.00   0.00
     5   6     0.00   0.00   0.00    -0.01   0.01  -0.00    -0.00   0.00  -0.00
     6   6    -0.00   0.03   0.00     0.00  -0.01  -0.00     0.00  -0.00  -0.00
     7   1    -0.07  -0.04  -0.02    -0.01  -0.01  -0.00    -0.00  -0.00  -0.00
     8   1    -0.13   0.07  -0.03     0.00  -0.01   0.01     0.00  -0.00   0.00
     9   1     0.15   0.09   0.06     0.01   0.00   0.00    -0.00  -0.00  -0.00
    10   1     0.08  -0.04   0.02     0.02  -0.01   0.00     0.00  -0.00   0.00
    11   1     0.00  -0.11  -0.01    -0.00   0.00   0.00    -0.00   0.00   0.00
    12   6    -0.02  -0.00   0.01     0.00  -0.00   0.00     0.00  -0.00  -0.00
    13   6    -0.08   0.06   0.01     0.00  -0.00  -0.00     0.00  -0.00   0.00
    14   6     0.03  -0.11   0.04    -0.00  -0.00   0.00    -0.00  -0.00   0.00
    15   6     0.00  -0.03   0.01    -0.00  -0.00   0.00    -0.00  -0.00   0.00
    16   1     0.48  -0.30  -0.12    -0.01   0.01   0.00    -0.00   0.00  -0.00
    17   6    -0.02   0.02  -0.00    -0.00   0.00  -0.00     0.00   0.00  -0.00
    18   1    -0.06   0.46  -0.22    -0.00  -0.01  -0.00    -0.00   0.01  -0.00
    19   6     0.08   0.05  -0.08    -0.00  -0.00   0.00     0.00   0.00  -0.00
    20   1     0.03  -0.20   0.09    -0.00   0.01  -0.01    -0.00   0.00  -0.00
    21   1    -0.24   0.16   0.05     0.00   0.00  -0.00    -0.01   0.00   0.00
    22   1    -0.26  -0.13   0.22     0.00   0.00  -0.00    -0.00  -0.00   0.00
    23  16     0.00   0.00   0.00     0.00   0.00   0.00     0.00   0.00   0.00
    24   8    -0.00  -0.00  -0.00    -0.00  -0.00   0.00    -0.00  -0.00  -0.00
    25   8    -0.00  -0.00  -0.00    -0.00  -0.00  -0.00    -0.00  -0.00  -0.00
    26   6    -0.00  -0.00  -0.00    -0.00  -0.00  -0.00     0.00  -0.00   0.00
    27   6     0.00  -0.00   0.00     0.00  -0.00   0.00    -0.00  -0.00  -0.00
    28   6    -0.00   0.00   0.00    -0.00   0.00   0.00    -0.00   0.00  -0.00
    29   6     0.00   0.00   0.00     0.00   0.00   0.00    -0.00   0.00  -0.00
    30   1    -0.00   0.00  -0.00    -0.00   0.00  -0.00    -0.00   0.00  -0.00
    31   6     0.00  -0.00   0.00     0.00  -0.00   0.00     0.00  -0.00  -0.00
    32   1     0.00  -0.00  -0.00    -0.00  -0.01  -0.00    -0.00   0.00   0.00
    33   6    -0.00  -0.00  -0.00    -0.00  -0.00  -0.00     0.00  -0.00   0.00
    34   1     0.00   0.00   0.00     0.00   0.00   0.00    -0.00  -0.00  -0.00
    35   1    -0.00   0.00  -0.00     0.00   0.00  -0.00    -0.00  -0.00  -0.00
    36   6     0.00   0.00   0.00     0.00   0.00   0.00    -0.00  -0.00  -0.00
    37   1    -0.00  -0.00  -0.00    -0.00  -0.00  -0.00     0.00   0.00   0.00
    38   1     0.00  -0.00  -0.00     0.00  -0.00  -0.00    -0.00   0.00   0.00
    39   1    -0.00   0.00   0.00    -0.00  -0.00   0.00     0.00   0.00  -0.00
    40   7    -0.00  -0.00   0.00    -0.00  -0.00   0.00    -0.00  -0.00   0.00
    41   1    -0.01   0.02   0.01     0.02   0.04  -0.05     0.00   0.02  -0.02
    42   6     0.02   0.01  -0.00    -0.01   0.01   0.00    -0.00   0.00  -0.00
    43   6    -0.00   0.00  -0.00    -0.09  -0.01  -0.01     0.00   0.01  -0.00
    44   6     0.00   0.00   0.00     0.07  -0.01  -0.00     0.02  -0.01  -0.00
    45   6     0.00   0.00   0.00    -0.01   0.02  -0.00     0.03  -0.01   0.00
    46   6    -0.00  -0.00   0.00    -0.19  -0.10   0.03    -0.01  -0.00   0.00
    47   1    -0.00   0.01  -0.00    -0.11   0.80  -0.13     0.01   0.01  -0.01
    48   6     0.00  -0.00  -0.00     0.10  -0.03   0.01     0.00   0.02  -0.01
    49   6     0.00   0.00   0.00     0.11   0.01   0.00    -0.03   0.01   0.00
    50   1    -0.01  -0.00  -0.02    -0.26   0.15  -0.03     0.07  -0.03  -0.00
    51   6     0.00   0.00  -0.00     0.00   0.01  -0.00    -0.14  -0.02  -0.01
    52   1    -0.00   0.00  -0.00    -0.01   0.01   0.00     0.53  -0.06   0.13
    53   1    -0.00  -0.00   0.00    -0.01  -0.00   0.00     0.49   0.11  -0.23
    54   1    -0.00  -0.00  -0.00    -0.02  -0.01  -0.00     0.44   0.25   0.22
    55   6     0.00  -0.00  -0.00     0.05   0.04  -0.01     0.00   0.01  -0.00
    56   1    -0.00   0.00   0.00    -0.12  -0.05   0.18     0.01  -0.01   0.02
    57   1    -0.00   0.00  -0.00    -0.17  -0.18  -0.08     0.00  -0.03  -0.01
    58   1     0.00  -0.00   0.00     0.07  -0.10  -0.02     0.01  -0.03   0.00
    59   6     0.00   0.00   0.00     0.03  -0.01   0.01     0.03  -0.03   0.01
    60   1     0.00  -0.00   0.00    -0.04   0.02  -0.02    -0.12   0.06  -0.01
    61   1    -0.00  -0.00  -0.00    -0.06  -0.04  -0.06    -0.07   0.08  -0.10
    62   1    -0.00  -0.00   0.00    -0.06   0.00   0.06    -0.08   0.11   0.03
    63   8     0.00   0.00  -0.00     0.00   0.02  -0.01    -0.00  -0.01   0.00
                    127                    128                    129
                      A                      A                      A
 Frequencies --   1425.2640              1427.9834              1431.9909
 Red. masses --      1.2836                 1.2489                 1.2062
 Frc consts  --      1.5362                 1.5005                 1.4573
 IR Inten    --      2.9715                 0.2763                 4.4430
  Atom  AN      X      Y      Z        X      Y      Z        X      Y      Z
     1   6    -0.00   0.00  -0.00     0.00  -0.00  -0.00    -0.00  -0.00  -0.00
     2   6     0.00  -0.00   0.00    -0.00   0.00  -0.00     0.00   0.00   0.00
     3   6    -0.00  -0.00  -0.00    -0.00   0.00  -0.00    -0.00   0.00  -0.00
     4   6     0.00   0.00   0.00    -0.00  -0.00  -0.00    -0.00  -0.00  -0.00
     5   6    -0.00  -0.00  -0.00     0.00   0.00   0.00     0.00  -0.00   0.00
     6   6    -0.00  -0.00  -0.00     0.00   0.00   0.00     0.00   0.00   0.00
     7   1    -0.00   0.00  -0.00     0.00   0.00   0.00     0.01   0.00   0.00
     8   1     0.01  -0.00   0.00     0.00   0.00  -0.00     0.00   0.00  -0.00
     9   1    -0.01  -0.00  -0.00     0.00   0.00   0.00     0.00   0.00   0.00
    10   1    -0.01   0.00  -0.00     0.00  -0.00   0.00    -0.00   0.00  -0.00
    11   1    -0.00   0.01   0.00     0.00  -0.00   0.00     0.00   0.00   0.00
    12   6     0.00  -0.00   0.00    -0.00   0.00  -0.00    -0.00   0.00   0.00
    13   6     0.00   0.00  -0.00    -0.00  -0.00   0.00     0.00  -0.00  -0.00
    14   6     0.00   0.00  -0.00    -0.00   0.00  -0.00     0.00   0.00  -0.00
    15   6     0.00  -0.00   0.00    -0.00   0.00  -0.00     0.00  -0.00  -0.00
    16   1     0.00  -0.00  -0.00    -0.00  -0.00   0.00    -0.00   0.00   0.00
    17   6    -0.00   0.00   0.00     0.00  -0.00  -0.00     0.00  -0.00  -0.00
    18   1     0.00   0.00   0.00    -0.00  -0.00   0.00     0.00   0.00   0.00
    19   6    -0.00  -0.00   0.00    -0.00  -0.00   0.00    -0.00   0.00   0.00
    20   1    -0.00   0.00  -0.00     0.00  -0.00   0.00    -0.00   0.00  -0.00
    21   1     0.00  -0.00  -0.00    -0.00   0.00   0.00    -0.00   0.00  -0.00
    22   1     0.00   0.00  -0.00    -0.00  -0.00   0.00     0.00   0.00  -0.00
    23  16     0.00   0.00   0.00    -0.00   0.00  -0.00    -0.00  -0.00  -0.00
    24   8    -0.00  -0.00   0.00     0.00  -0.00   0.00     0.00   0.00   0.00
    25   8    -0.00  -0.00  -0.00     0.00   0.00   0.00     0.00   0.00   0.00
    26   6     0.00   0.00   0.00    -0.00   0.00  -0.00     0.00  -0.00  -0.00
    27   6     0.00  -0.01  -0.00     0.00  -0.01  -0.00    -0.00   0.00  -0.00
    28   6    -0.00   0.01   0.00     0.00   0.00   0.00     0.00  -0.00   0.00
    29   6    -0.00   0.01   0.00    -0.00   0.01   0.00     0.00  -0.00  -0.00
    30   1    -0.01   0.00  -0.01    -0.00  -0.00  -0.00     0.00  -0.00   0.00
    31   6     0.00  -0.01  -0.00    -0.00  -0.00  -0.00    -0.00   0.00  -0.00
    32   1    -0.00  -0.02  -0.00     0.01  -0.02  -0.00     0.00   0.00  -0.00
    33   6    -0.00   0.01   0.00    -0.01   0.02   0.00     0.00   0.00   0.00
    34   1    -0.00  -0.03  -0.01     0.00  -0.04  -0.01     0.00  -0.00  -0.00
    35   1    -0.01   0.00  -0.01     0.01  -0.01   0.00     0.00  -0.00   0.00
    36   6     0.02  -0.05   0.00     0.05  -0.12   0.01     0.00  -0.00  -0.00
    37   1    -0.14   0.17   0.09    -0.36   0.41   0.21    -0.00   0.00   0.00
    38   1    -0.00   0.18  -0.02    -0.01   0.47  -0.05    -0.00   0.00   0.00
    39   1    -0.04   0.18  -0.10    -0.12   0.45  -0.26    -0.00   0.00  -0.00
    40   7    -0.00  -0.00   0.00    -0.00   0.00  -0.00     0.00   0.00  -0.00
    41   1     0.00   0.01  -0.01    -0.01  -0.01   0.02    -0.00  -0.03   0.02
    42   6    -0.00   0.00  -0.00     0.00   0.00   0.00     0.01  -0.00   0.00
    43   6    -0.02   0.00  -0.00     0.01  -0.00   0.00    -0.01   0.01  -0.00
    44   6    -0.00   0.01  -0.00     0.00  -0.01   0.00     0.00  -0.00   0.00
    45   6     0.01   0.00   0.00    -0.00  -0.00  -0.00     0.01   0.00   0.00
    46   6    -0.03   0.01   0.00     0.01  -0.01   0.00     0.01   0.01  -0.00
    47   1     0.01  -0.02   0.00    -0.00   0.01  -0.00     0.01  -0.05   0.01
    48   6     0.01   0.01  -0.00    -0.00  -0.00   0.00    -0.01   0.00  -0.00
    49   6     0.02  -0.01   0.00    -0.01   0.01  -0.00    -0.01  -0.00   0.00
    50   1    -0.03   0.00  -0.00     0.01  -0.00   0.00     0.05  -0.03   0.01
    51   6    -0.01   0.00  -0.00     0.00  -0.00   0.00     0.03   0.01   0.00
    52   1     0.01  -0.00   0.01    -0.00   0.00  -0.00    -0.14   0.02  -0.03
    53   1     0.02  -0.00  -0.01    -0.01   0.00   0.00    -0.14  -0.05   0.06
    54   1     0.01   0.00   0.01    -0.00  -0.00  -0.01    -0.12  -0.08  -0.05
    55   6     0.09  -0.11   0.02    -0.03   0.04  -0.01    -0.01  -0.00   0.00
    56   1    -0.37   0.27  -0.26     0.15  -0.10   0.10     0.02   0.00  -0.01
    57   1    -0.36   0.40   0.16     0.14  -0.15  -0.06     0.02   0.01   0.00
    58   1    -0.13   0.45  -0.16     0.05  -0.18   0.06     0.00  -0.01   0.01
    59   6     0.01  -0.00   0.00    -0.00   0.00  -0.00     0.09  -0.08   0.03
    60   1    -0.00   0.00  -0.00     0.00  -0.00   0.00    -0.38   0.17  -0.07
    61   1    -0.02  -0.01  -0.02     0.01   0.00   0.01    -0.34   0.28  -0.43
    62   1    -0.02   0.00   0.02     0.01  -0.00  -0.01    -0.38   0.43   0.15
    63   8    -0.00  -0.01   0.00     0.00   0.00  -0.00     0.00  -0.00   0.00
                    130                    131                    132
                      A                      A                      A
 Frequencies --   1444.3671              1451.4091              1476.7607
 Red. masses --      2.4212                 1.4320                 1.4133
 Frc consts  --      2.9760                 1.7774                 1.8159
 IR Inten    --      9.3907                38.3576                 7.4280
  Atom  AN      X      Y      Z        X      Y      Z        X      Y      Z
     1   6    -0.01  -0.00  -0.00    -0.05  -0.03  -0.01     0.00  -0.00   0.00
     2   6     0.00   0.00   0.00     0.01   0.03   0.00     0.00  -0.00   0.00
     3   6    -0.00  -0.00  -0.00    -0.02  -0.02  -0.01    -0.00   0.01  -0.00
     4   6    -0.00  -0.00  -0.00    -0.03   0.00  -0.01     0.00  -0.00  -0.00
     5   6     0.01  -0.00   0.00     0.05  -0.00   0.01    -0.00   0.00  -0.00
     6   6     0.00   0.00   0.00     0.01  -0.01   0.00    -0.00   0.00   0.00
     7   1     0.02   0.01   0.01     0.16   0.10   0.05    -0.01  -0.01  -0.00
     8   1     0.01   0.00   0.00     0.05   0.01   0.01     0.01  -0.00  -0.01
     9   1     0.01   0.01   0.00     0.04   0.05   0.01     0.00  -0.00   0.00
    10   1    -0.01   0.01  -0.00    -0.07   0.07  -0.01     0.01  -0.00   0.00
    11   1     0.00   0.01   0.00     0.00   0.15   0.01     0.00  -0.01  -0.00
    12   6    -0.00   0.00  -0.00    -0.01   0.02  -0.01    -0.01  -0.01   0.01
    13   6    -0.00  -0.00   0.00    -0.01  -0.01   0.01    -0.00   0.01  -0.00
    14   6    -0.00   0.00  -0.00    -0.01   0.02  -0.00     0.01  -0.00  -0.00
    15   6     0.00   0.00  -0.00    -0.00   0.02  -0.01     0.01  -0.01   0.00
    16   1     0.00  -0.00   0.00     0.03  -0.03   0.00     0.03  -0.01  -0.01
    17   6     0.00  -0.00   0.00     0.01  -0.02   0.00    -0.01   0.01  -0.00
    18   1    -0.00  -0.01   0.00    -0.01  -0.03   0.01     0.01   0.01  -0.01
    19   6     0.00  -0.00   0.00     0.00  -0.00  -0.00    -0.01  -0.00   0.01
    20   1     0.00  -0.01   0.01     0.02  -0.09   0.04     0.00   0.03  -0.02
    21   1    -0.00  -0.00   0.00    -0.03   0.01   0.01     0.04  -0.02  -0.01
    22   1    -0.01  -0.00   0.01    -0.04  -0.03   0.04     0.04   0.02  -0.03
    23  16     0.00   0.00   0.00    -0.04  -0.01  -0.01    -0.00  -0.00  -0.00
    24   8     0.00  -0.00  -0.00     0.03   0.01   0.00     0.00   0.00   0.00
    25   8     0.00   0.00   0.00     0.02   0.02   0.01     0.00   0.00   0.00
    26   6    -0.08  -0.05  -0.06     0.01   0.00   0.00     0.00   0.00   0.00
    27   6    -0.05   0.14   0.01     0.00  -0.01  -0.00     0.00  -0.00  -0.00
    28   6     0.09  -0.11   0.02    -0.01   0.01   0.00    -0.00   0.00  -0.00
    29   6     0.09  -0.12   0.02    -0.01   0.00  -0.00    -0.00   0.00  -0.00
    30   1     0.35  -0.13   0.17    -0.01   0.00  -0.01    -0.00   0.00  -0.00
    31   6    -0.06   0.14   0.01    -0.00  -0.01  -0.01    -0.00  -0.00  -0.00
    32   1     0.09   0.35   0.14    -0.01  -0.01  -0.01    -0.00  -0.00  -0.00
    33   6    -0.10  -0.05  -0.07     0.02   0.01   0.01     0.00   0.00   0.00
    34   1     0.08   0.37   0.16    -0.01  -0.03  -0.01    -0.00  -0.00  -0.00
    35   1     0.36  -0.14   0.17    -0.02  -0.00  -0.01    -0.00  -0.00  -0.00
    36   6     0.05   0.01   0.04    -0.01   0.00  -0.01    -0.00  -0.00  -0.00
    37   1    -0.24  -0.07  -0.22     0.04   0.01   0.03     0.01   0.01   0.01
    38   1     0.07   0.09  -0.11    -0.01  -0.02   0.02    -0.00  -0.00   0.01
    39   1    -0.18  -0.06   0.07     0.03   0.01  -0.01    -0.00   0.01  -0.01
    40   7    -0.00   0.01  -0.01     0.02   0.06  -0.07     0.00   0.01  -0.01
    41   1    -0.03  -0.08   0.09    -0.21  -0.57   0.69    -0.01  -0.05   0.05
    42   6     0.01  -0.00   0.01     0.07  -0.04   0.04     0.01  -0.01   0.00
    43   6    -0.00  -0.00  -0.00    -0.01  -0.01  -0.00    -0.07   0.00  -0.01
    44   6     0.00   0.00  -0.00     0.01   0.00  -0.00    -0.06   0.03   0.00
    45   6     0.00   0.00  -0.00    -0.01   0.00   0.00     0.04   0.02  -0.00
    46   6    -0.00  -0.00  -0.00    -0.01  -0.01   0.00     0.05  -0.00  -0.01
    47   1    -0.00   0.01  -0.00     0.00   0.03  -0.00    -0.04  -0.08   0.02
    48   6     0.00  -0.00   0.00     0.01   0.01  -0.00    -0.04   0.02  -0.00
    49   6     0.00   0.00   0.00     0.00   0.01   0.00     0.12  -0.04   0.01
    50   1    -0.00   0.00  -0.00     0.01  -0.00  -0.01    -0.30   0.10  -0.01
    51   6    -0.00  -0.00   0.00    -0.00  -0.00   0.00    -0.02   0.02  -0.01
    52   1     0.01  -0.00   0.00     0.06  -0.02  -0.01    -0.16   0.05   0.02
    53   1     0.00   0.01  -0.00    -0.01   0.04   0.01     0.18  -0.20  -0.09
    54   1     0.00   0.01  -0.00     0.01   0.05  -0.04     0.11  -0.13   0.27
    55   6     0.01  -0.01  -0.00     0.01   0.00  -0.00    -0.02  -0.01  -0.03
    56   1    -0.05   0.02  -0.02    -0.03  -0.01   0.03    -0.28   0.02   0.06
    57   1    -0.01   0.03   0.01    -0.03  -0.02  -0.01     0.38   0.01  -0.01
    58   1    -0.00   0.04   0.02    -0.00   0.02  -0.01     0.06   0.15   0.47
    59   6     0.00   0.00   0.00    -0.00   0.00   0.00     0.02   0.02  -0.00
    60   1     0.00  -0.00  -0.00    -0.00  -0.00  -0.01     0.18  -0.08   0.01
    61   1    -0.00  -0.00   0.00     0.02  -0.01   0.02    -0.16  -0.19  -0.10
    62   1     0.00  -0.00   0.00     0.03  -0.01  -0.02    -0.16  -0.08   0.15
    63   8     0.00   0.00  -0.00    -0.00  -0.00   0.00     0.00  -0.01   0.00
                    133                    134                    135
                      A                      A                      A
 Frequencies --   1481.4092              1486.1670              1494.0005
 Red. masses --      1.1697                 2.0854                 1.9874
 Frc consts  --      1.5125                 2.7138                 2.6137
 IR Inten    --     14.2138                10.9693                18.7428
  Atom  AN      X      Y      Z        X      Y      Z        X      Y      Z
     1   6    -0.00   0.00  -0.00    -0.07   0.00  -0.02     0.10   0.01   0.03
     2   6     0.00   0.00   0.00     0.05   0.02   0.01    -0.06  -0.04  -0.02
     3   6     0.00  -0.01   0.00     0.02  -0.07   0.00    -0.01   0.12   0.00
     4   6     0.00   0.00   0.00    -0.04   0.03  -0.01     0.07  -0.04   0.02
     5   6     0.00  -0.00   0.00     0.07  -0.01   0.02    -0.10  -0.00  -0.03
     6   6    -0.00  -0.01  -0.00    -0.00  -0.05  -0.00    -0.00   0.08   0.00
     7   1     0.00   0.00  -0.00     0.12   0.12   0.04    -0.20  -0.20  -0.07
     8   1    -0.01   0.01  -0.00    -0.07   0.10  -0.01     0.08  -0.14   0.01
     9   1    -0.01  -0.00  -0.00     0.01   0.08   0.01    -0.11  -0.16  -0.05
    10   1    -0.02   0.01  -0.00    -0.19   0.14  -0.04     0.22  -0.19   0.04
    11   1    -0.00   0.02   0.00    -0.02   0.27   0.01     0.02  -0.41  -0.02
    12   6     0.01   0.01  -0.01     0.09   0.04  -0.07     0.05   0.04  -0.04
    13   6     0.00  -0.01   0.00     0.02  -0.08   0.04     0.00  -0.05   0.02
    14   6    -0.01   0.00   0.00    -0.07   0.04   0.02    -0.04   0.04   0.00
    15   6    -0.01   0.02  -0.00    -0.07   0.10  -0.02    -0.04   0.07  -0.01
    16   1    -0.03   0.01   0.01    -0.19   0.03   0.09    -0.09   0.00   0.05
    17   6     0.01  -0.01   0.00     0.07  -0.09   0.01     0.03  -0.06   0.01
    18   1    -0.01  -0.01   0.02    -0.06  -0.11   0.10    -0.02  -0.11   0.08
    19   6     0.01   0.00  -0.01     0.05   0.03  -0.05     0.04   0.01  -0.03
    20   1    -0.00  -0.04   0.02    -0.02  -0.29   0.17    -0.00  -0.20   0.11
    21   1    -0.05   0.02   0.02    -0.30   0.14   0.10    -0.14   0.05   0.06
    22   1    -0.05  -0.03   0.04    -0.32  -0.18   0.28    -0.19  -0.11   0.17
    23  16     0.00   0.00   0.00     0.01   0.00   0.00    -0.01  -0.00  -0.00
    24   8    -0.00  -0.00  -0.00    -0.01  -0.00  -0.00     0.00   0.00   0.00
    25   8    -0.00  -0.00  -0.00    -0.00  -0.00  -0.00     0.00   0.00   0.00
    26   6     0.00   0.00   0.00    -0.00   0.00   0.00    -0.00  -0.00  -0.00
    27   6     0.00  -0.00  -0.00     0.00  -0.00  -0.00    -0.00   0.00   0.00
    28   6    -0.00   0.00  -0.00    -0.00  -0.00  -0.00     0.00   0.00   0.00
    29   6    -0.00   0.00  -0.00     0.00   0.00   0.00     0.00  -0.00  -0.00
    30   1    -0.01   0.00  -0.00    -0.00   0.00  -0.00     0.00  -0.00   0.00
    31   6     0.00  -0.00   0.00     0.00  -0.00   0.00    -0.00   0.00  -0.00
    32   1    -0.00  -0.00  -0.00    -0.00   0.00   0.00     0.00  -0.00   0.00
    33   6     0.00   0.00   0.00    -0.00  -0.00  -0.00     0.00   0.00   0.00
    34   1    -0.00  -0.00  -0.00     0.00   0.00   0.00    -0.00   0.00   0.00
    35   1    -0.00   0.00  -0.00    -0.00   0.00   0.00     0.01  -0.01   0.00
    36   6    -0.00  -0.00  -0.00     0.00   0.00   0.00    -0.00  -0.00  -0.00
    37   1     0.00   0.00   0.01    -0.01  -0.01  -0.01     0.03   0.01   0.02
    38   1    -0.00  -0.00   0.00     0.00   0.01  -0.00    -0.00  -0.02   0.02
    39   1    -0.00   0.01  -0.00    -0.01  -0.01   0.00     0.01   0.02  -0.01
    40   7    -0.00  -0.01   0.01     0.00  -0.02   0.02     0.01   0.02  -0.02
    41   1     0.02   0.05  -0.05     0.07   0.17  -0.20    -0.04  -0.10   0.13
    42   6    -0.01   0.00  -0.00    -0.06   0.02  -0.00    -0.01  -0.06   0.02
    43   6     0.03  -0.00   0.01    -0.01   0.01  -0.00    -0.02  -0.01   0.01
    44   6     0.04  -0.01  -0.00    -0.01   0.00   0.00    -0.01   0.01  -0.00
    45   6    -0.02  -0.01   0.00    -0.00  -0.00  -0.00     0.02   0.00  -0.00
    46   6    -0.03  -0.00  -0.01     0.01   0.00   0.00     0.02  -0.01   0.00
    47   1     0.03   0.02  -0.01    -0.02   0.00   0.00     0.00  -0.05   0.00
    48   6     0.02  -0.00   0.00    -0.01  -0.00   0.00    -0.01   0.01  -0.00
    49   6    -0.06   0.02  -0.00     0.03  -0.01   0.00     0.02  -0.01   0.00
    50   1     0.17  -0.06   0.01    -0.08   0.03   0.00    -0.02   0.01  -0.00
    51   6     0.01  -0.01   0.01     0.00   0.01  -0.01    -0.00  -0.01  -0.01
    52   1     0.13  -0.03  -0.00    -0.13   0.04   0.01     0.07   0.03   0.14
    53   1    -0.13   0.16   0.07     0.10  -0.14  -0.05    -0.02   0.18   0.01
    54   1    -0.08   0.10  -0.20     0.05  -0.10   0.17    -0.08  -0.01  -0.07
    55   6     0.02  -0.02  -0.05    -0.01  -0.00   0.01     0.00   0.01   0.00
    56   1    -0.48  -0.00   0.20     0.08   0.03  -0.08     0.01  -0.05   0.07
    57   1     0.30  -0.10  -0.05     0.02   0.07   0.02    -0.08  -0.07  -0.02
    58   1     0.08   0.28   0.54     0.01  -0.08  -0.03    -0.03   0.05  -0.06
    59   6    -0.01  -0.01   0.00     0.00  -0.00   0.00     0.00   0.02   0.02
    60   1    -0.13   0.05  -0.02     0.01  -0.02  -0.05     0.07  -0.10  -0.28
    61   1     0.10   0.11   0.06    -0.01  -0.04   0.00    -0.09  -0.25  -0.00
    62   1     0.11   0.06  -0.10     0.00   0.04  -0.01    -0.02   0.16  -0.03
    63   8    -0.00   0.00   0.00     0.00   0.00  -0.00    -0.00  -0.01   0.00
                    136                    137                    138
                      A                      A                      A
 Frequencies --   1494.0625              1498.0171              1499.5633
 Red. masses --      1.1499                 1.1289                 1.0729
 Frc consts  --      1.5123                 1.4925                 1.4214
 IR Inten    --     14.8406                 3.5824                 3.6494
  Atom  AN      X      Y      Z        X      Y      Z        X      Y      Z
     1   6     0.03   0.00   0.01    -0.00   0.00  -0.00     0.01  -0.00   0.00
     2   6    -0.02  -0.01  -0.01     0.00  -0.00   0.00    -0.00  -0.00  -0.00
     3   6    -0.00   0.04   0.00     0.00  -0.00  -0.00    -0.00   0.01  -0.00
     4   6     0.02  -0.01   0.01    -0.00   0.00   0.00     0.00  -0.00   0.00
     5   6    -0.03   0.00  -0.01     0.00  -0.00   0.00    -0.01   0.00  -0.00
     6   6    -0.00   0.02   0.00    -0.00  -0.00  -0.00     0.00   0.00   0.00
     7   1    -0.06  -0.06  -0.02    -0.00   0.00  -0.00    -0.01  -0.01  -0.00
     8   1     0.03  -0.05   0.00    -0.00   0.00  -0.00     0.01  -0.01   0.00
     9   1    -0.03  -0.05  -0.02    -0.00  -0.00  -0.00    -0.00  -0.01  -0.00
    10   1     0.07  -0.06   0.01    -0.01   0.00  -0.00     0.01  -0.01   0.00
    11   1     0.01  -0.13  -0.01    -0.00   0.01   0.00     0.00  -0.02  -0.00
    12   6     0.01   0.01  -0.01     0.01   0.01  -0.01    -0.00  -0.00   0.00
    13   6    -0.00  -0.01   0.01     0.00  -0.01   0.00    -0.00   0.00  -0.00
    14   6    -0.01   0.01   0.00    -0.01   0.01   0.00     0.00  -0.00  -0.00
    15   6    -0.01   0.02  -0.00    -0.01   0.01  -0.00     0.00  -0.00   0.00
    16   1    -0.02  -0.00   0.01    -0.02   0.01   0.01     0.00  -0.00  -0.00
    17   6     0.01  -0.02   0.00     0.01  -0.01   0.00    -0.00   0.00  -0.00
    18   1    -0.01  -0.03   0.03    -0.01  -0.02   0.01     0.00   0.00  -0.00
    19   6     0.01   0.00  -0.01     0.01   0.00  -0.01    -0.00  -0.00   0.00
    20   1     0.00  -0.06   0.03    -0.00  -0.04   0.02     0.00   0.00  -0.00
    21   1    -0.03   0.01   0.02    -0.03   0.01   0.01     0.00  -0.00  -0.00
    22   1    -0.05  -0.03   0.05    -0.04  -0.02   0.04     0.00   0.00  -0.00
    23  16    -0.00  -0.00  -0.00     0.00   0.00  -0.00     0.00   0.00   0.00
    24   8     0.00   0.00   0.00    -0.00  -0.00  -0.00    -0.00  -0.00  -0.00
    25   8     0.00   0.00   0.00    -0.00  -0.00  -0.00    -0.00   0.00  -0.00
    26   6    -0.00  -0.00  -0.00    -0.00   0.00   0.00    -0.02  -0.01  -0.01
    27   6    -0.00   0.00   0.00     0.00  -0.00   0.00     0.01   0.01   0.01
    28   6     0.00   0.00   0.00     0.00  -0.00   0.00     0.01  -0.00   0.01
    29   6     0.00  -0.00  -0.00     0.00  -0.00   0.00     0.01  -0.01   0.00
    30   1     0.00  -0.00   0.00    -0.00   0.00  -0.00     0.01   0.01   0.01
    31   6    -0.00   0.00  -0.00     0.00   0.00   0.00    -0.01   0.01   0.00
    32   1     0.00   0.00   0.00     0.00   0.00  -0.00     0.02   0.01   0.01
    33   6     0.00   0.00   0.00    -0.00   0.00  -0.00    -0.01   0.00  -0.02
    34   1    -0.00   0.00   0.00     0.00   0.00   0.00     0.00   0.03   0.02
    35   1     0.00  -0.00   0.00     0.00  -0.00   0.00     0.05  -0.03   0.02
    36   6    -0.00  -0.00  -0.00     0.00  -0.00  -0.00     0.01  -0.01  -0.04
    37   1     0.01   0.00   0.01     0.02  -0.00   0.01     0.39  -0.01   0.22
    38   1    -0.00  -0.01   0.00    -0.01  -0.00   0.03    -0.14  -0.10   0.58
    39   1     0.00   0.01  -0.00    -0.02   0.01  -0.00    -0.36   0.19  -0.11
    40   7     0.00   0.01  -0.01     0.00  -0.00   0.00    -0.00   0.00  -0.00
    41   1    -0.02  -0.05   0.07     0.01   0.02  -0.03    -0.01  -0.01   0.01
    42   6     0.00  -0.02   0.01    -0.01   0.00   0.00     0.00  -0.00   0.00
    43   6     0.01   0.02  -0.02    -0.03  -0.03  -0.01    -0.00   0.01  -0.00
    44   6     0.00   0.00  -0.00    -0.02   0.00   0.00     0.01  -0.02   0.00
    45   6    -0.02  -0.01   0.01     0.04   0.01   0.01    -0.01  -0.01   0.00
    46   6    -0.01   0.00  -0.00     0.02  -0.00   0.00    -0.02   0.00   0.00
    47   1     0.00   0.00   0.00    -0.02   0.00   0.00    -0.02   0.09  -0.01
    48   6     0.01  -0.01   0.00    -0.02   0.01  -0.00     0.01  -0.01   0.00
    49   6    -0.00  -0.00   0.00     0.04  -0.01   0.00    -0.00   0.01  -0.00
    50   1    -0.01  -0.00   0.00    -0.08   0.04   0.00    -0.01   0.01  -0.00
    51   6     0.00   0.03   0.01    -0.01  -0.03   0.02     0.00   0.00  -0.00
    52   1    -0.16  -0.05  -0.28     0.30  -0.12  -0.12     0.00   0.01   0.01
    53   1     0.07  -0.40  -0.04    -0.23   0.23   0.11     0.01  -0.00  -0.00
    54   1     0.18   0.00   0.18    -0.08   0.28  -0.37    -0.00  -0.01   0.01
    55   6     0.01  -0.00  -0.00    -0.01  -0.00   0.00    -0.02  -0.01   0.00
    56   1    -0.03  -0.02   0.04     0.06   0.04  -0.09     0.06   0.14  -0.23
    57   1    -0.02  -0.04  -0.01     0.06   0.08   0.03     0.18   0.23   0.08
    58   1    -0.01   0.04   0.00     0.02  -0.08   0.01     0.06  -0.18   0.09
    59   6    -0.00  -0.03  -0.03     0.01   0.02  -0.04    -0.00  -0.01   0.01
    60   1    -0.17   0.19   0.45     0.17   0.03   0.40    -0.06   0.01  -0.05
    61   1     0.18   0.45   0.02    -0.13   0.08  -0.15     0.05   0.02   0.04
    62   1     0.08  -0.25   0.01    -0.24  -0.33   0.26     0.06   0.05  -0.06
    63   8    -0.00   0.00  -0.00     0.00  -0.01   0.00     0.00   0.01  -0.00
                    139                    140                    141
                      A                      A                      A
 Frequencies --   1501.6676              1507.0116              1514.4461
 Red. masses --      1.0913                 1.1038                 1.6656
 Frc consts  --      1.4499                 1.4770                 2.2508
 IR Inten    --      8.6195                 9.8000                15.2604
  Atom  AN      X      Y      Z        X      Y      Z        X      Y      Z
     1   6     0.01  -0.00   0.00    -0.00   0.00  -0.00    -0.01   0.00  -0.00
     2   6    -0.01  -0.00  -0.00     0.00   0.00   0.00     0.01   0.00   0.00
     3   6    -0.00   0.01  -0.00     0.00  -0.00   0.00     0.00  -0.01  -0.00
     4   6     0.01  -0.00   0.00    -0.00   0.00  -0.00    -0.01   0.00  -0.00
     5   6    -0.01   0.00  -0.00     0.00  -0.00   0.00     0.01  -0.00   0.00
     6   6     0.00   0.01   0.00    -0.00  -0.00  -0.00    -0.00  -0.01  -0.00
     7   1    -0.02  -0.02  -0.01     0.00   0.00   0.00     0.01   0.01   0.00
     8   1     0.02  -0.02   0.00    -0.00   0.01  -0.00    -0.02   0.02  -0.01
     9   1    -0.01  -0.02  -0.01     0.00   0.00   0.00     0.01   0.01   0.00
    10   1     0.03  -0.03   0.01    -0.01   0.01  -0.00    -0.02   0.02  -0.00
    11   1     0.00  -0.05  -0.00    -0.00   0.01   0.00    -0.00   0.03   0.00
    12   6    -0.00   0.00  -0.00    -0.00  -0.00   0.00    -0.00  -0.00   0.00
    13   6    -0.00  -0.00   0.00     0.00   0.00  -0.00    -0.00   0.00  -0.00
    14   6    -0.00   0.00  -0.00     0.00  -0.00   0.00     0.00   0.00  -0.00
    15   6    -0.00   0.00  -0.00     0.00  -0.00   0.00     0.00  -0.00  -0.00
    16   1    -0.00  -0.00   0.00    -0.00   0.00  -0.00     0.02  -0.01  -0.01
    17   6    -0.00  -0.00   0.00     0.00   0.00  -0.00    -0.00   0.00   0.00
    18   1     0.00  -0.00   0.00    -0.00   0.00  -0.00     0.00   0.00  -0.00
    19   6     0.00  -0.00  -0.00    -0.00  -0.00   0.00    -0.00  -0.00   0.00
    20   1     0.00  -0.00   0.00    -0.00   0.00  -0.00     0.00   0.00  -0.00
    21   1     0.00  -0.00   0.00     0.00   0.00  -0.00     0.01  -0.01  -0.00
    22   1    -0.00  -0.00   0.00     0.00   0.00  -0.00     0.01   0.01  -0.01
    23  16    -0.00  -0.00  -0.00     0.00   0.00   0.00     0.00   0.00   0.00
    24   8     0.00   0.00   0.00    -0.00  -0.00  -0.00    -0.00  -0.00  -0.00
    25   8     0.00   0.00   0.00    -0.00  -0.00  -0.00    -0.00  -0.00  -0.00
    26   6     0.01   0.01   0.01    -0.03  -0.02  -0.02    -0.00  -0.00  -0.00
    27   6    -0.00  -0.01  -0.00     0.01   0.02   0.01    -0.00   0.00   0.00
    28   6    -0.01   0.00  -0.00     0.02   0.01   0.01     0.00   0.00   0.00
    29   6    -0.00   0.01  -0.00     0.01  -0.03  -0.00     0.00  -0.00   0.00
    30   1    -0.01  -0.00  -0.00     0.03   0.01   0.02     0.00  -0.00   0.00
    31   6     0.01  -0.01  -0.00    -0.01   0.02  -0.00    -0.00   0.00   0.00
    32   1    -0.01  -0.00  -0.01     0.02  -0.01   0.01     0.00  -0.00   0.00
    33   6     0.00  -0.00   0.01    -0.02  -0.02  -0.01    -0.00  -0.00  -0.00
    34   1    -0.00  -0.02  -0.01     0.00   0.11   0.04     0.00   0.00   0.00
    35   1    -0.03   0.02  -0.01     0.06  -0.03   0.02     0.01  -0.00  -0.00
    36   6    -0.01   0.01   0.02    -0.05   0.00  -0.00    -0.00  -0.00  -0.00
    37   1    -0.22   0.02  -0.11     0.19   0.29   0.41     0.01   0.01   0.02
    38   1     0.09   0.03  -0.34     0.06  -0.47  -0.18    -0.00  -0.01   0.01
    39   1     0.24  -0.10   0.06     0.53   0.32  -0.18     0.01   0.01  -0.01
    40   7     0.00   0.01  -0.01    -0.00  -0.00   0.00    -0.00  -0.00   0.00
    41   1    -0.01  -0.03   0.04     0.01   0.02  -0.02     0.02   0.03  -0.04
    42   6     0.00  -0.01   0.01    -0.00   0.00  -0.00    -0.01   0.00  -0.00
    43   6    -0.01   0.01  -0.00     0.00  -0.00   0.00    -0.13   0.01  -0.02
    44   6     0.01  -0.04   0.01     0.00   0.00  -0.00    -0.06   0.04   0.00
    45   6    -0.00  -0.01   0.00    -0.00   0.00  -0.00     0.07  -0.03   0.02
    46   6    -0.03   0.01   0.00     0.00   0.00   0.00     0.06  -0.00  -0.00
    47   1    -0.03   0.15  -0.02     0.00  -0.00   0.00    -0.04  -0.09   0.02
    48   6     0.01  -0.01   0.00     0.00  -0.00   0.00    -0.06   0.03  -0.01
    49   6     0.01   0.01  -0.00    -0.00   0.00  -0.00     0.13  -0.04   0.01
    50   1    -0.03   0.03  -0.00     0.01  -0.00   0.00    -0.24   0.08  -0.01
    51   6     0.00   0.00   0.00     0.00  -0.00  -0.00    -0.02  -0.00   0.01
    52   1     0.03  -0.00  -0.00    -0.00   0.00   0.01     0.21  -0.06  -0.08
    53   1    -0.01   0.01   0.01     0.00   0.00  -0.00    -0.14   0.10   0.06
    54   1    -0.01   0.01  -0.02    -0.00  -0.00   0.00    -0.06   0.14  -0.20
    55   6    -0.03  -0.02   0.00     0.00   0.00   0.00    -0.01   0.01   0.00
    56   1     0.10   0.24  -0.40    -0.00  -0.01   0.01     0.04  -0.07   0.08
    57   1     0.32   0.40   0.14    -0.01  -0.01  -0.00    -0.07  -0.09  -0.03
    58   1     0.11  -0.31   0.18    -0.00   0.01  -0.01    -0.04   0.06  -0.08
    59   6    -0.00  -0.01   0.01    -0.00   0.00  -0.00     0.01  -0.05   0.02
    60   1    -0.09   0.02  -0.07     0.01  -0.00   0.01    -0.41   0.16  -0.17
    61   1     0.08   0.04   0.06    -0.01  -0.00  -0.01     0.32   0.20   0.22
    62   1     0.10   0.06  -0.09    -0.01  -0.01   0.01     0.38   0.17  -0.30
    63   8     0.00   0.01  -0.00     0.00   0.00  -0.00     0.00  -0.01   0.00
                    142                    143                    144
                      A                      A                      A
 Frequencies --   1519.1744              1534.6844              1537.3422
 Red. masses --      1.0509                 2.1043                 2.1107
 Frc consts  --      1.4290                 2.9201                 2.9391
 IR Inten    --     13.5893                 2.8984                 6.0546
  Atom  AN      X      Y      Z        X      Y      Z        X      Y      Z
     1   6    -0.00  -0.00  -0.00    -0.08  -0.10  -0.03     0.02   0.02   0.01
     2   6    -0.00   0.00  -0.00    -0.08   0.09  -0.02     0.02  -0.02   0.00
     3   6     0.00   0.00   0.00     0.13   0.00   0.04    -0.04   0.01  -0.01
     4   6    -0.00  -0.00  -0.00    -0.07  -0.09  -0.03     0.02   0.02   0.01
     5   6    -0.00   0.00  -0.00    -0.10   0.09  -0.02     0.02  -0.02   0.00
     6   6     0.00   0.00   0.00     0.09   0.02   0.03    -0.02   0.00  -0.01
     7   1     0.00   0.00   0.00     0.37   0.16   0.12    -0.09  -0.05  -0.03
     8   1     0.01  -0.00   0.00     0.43  -0.18   0.10    -0.10   0.04  -0.02
     9   1     0.01   0.00   0.00     0.40   0.19   0.15    -0.11  -0.06  -0.04
    10   1     0.01  -0.00   0.00     0.39  -0.17   0.10    -0.08   0.03  -0.02
    11   1     0.00  -0.00   0.00     0.11  -0.03   0.03    -0.03  -0.01  -0.01
    12   6     0.00  -0.00  -0.00    -0.01   0.03  -0.01    -0.06   0.11  -0.02
    13   6    -0.00  -0.00   0.00     0.03  -0.01  -0.01     0.10  -0.03  -0.04
    14   6    -0.00   0.00  -0.00    -0.01  -0.02   0.02    -0.02  -0.09   0.07
    15   6    -0.00   0.00  -0.00    -0.01  -0.03   0.02    -0.01  -0.11   0.06
    16   1     0.00  -0.00   0.00    -0.11   0.08   0.02    -0.39   0.30   0.07
    17   6    -0.00  -0.00   0.00     0.04  -0.01  -0.01     0.12  -0.04  -0.05
    18   1     0.00  -0.01   0.00    -0.04   0.10  -0.04    -0.11   0.40  -0.16
    19   6     0.00  -0.00  -0.00    -0.01   0.02  -0.00    -0.06   0.07  -0.00
    20   1     0.00  -0.01   0.00    -0.03   0.10  -0.04    -0.09   0.37  -0.15
    21   1     0.00  -0.00   0.00    -0.10   0.08   0.02    -0.33   0.26   0.05
    22   1    -0.00  -0.00   0.00    -0.02   0.02   0.00    -0.04   0.10  -0.03
    23  16    -0.00  -0.00  -0.00     0.00   0.00   0.00    -0.00  -0.00  -0.00
    24   8     0.00   0.00   0.00    -0.00  -0.00  -0.00     0.00   0.00   0.00
    25   8     0.00   0.00   0.00    -0.00  -0.00  -0.00     0.00   0.00   0.00
    26   6     0.00  -0.00  -0.00    -0.00   0.00   0.00     0.01  -0.03   0.00
    27   6    -0.00  -0.00  -0.00     0.00  -0.00   0.00    -0.03   0.01  -0.01
    28   6    -0.00   0.00   0.00    -0.00  -0.00  -0.00     0.01   0.03   0.01
    29   6    -0.00   0.00   0.00    -0.00  -0.00  -0.00     0.01   0.02   0.01
    30   1     0.00  -0.00   0.00    -0.01   0.01  -0.00     0.08  -0.07   0.03
    31   6    -0.00  -0.00  -0.00     0.00  -0.00   0.00    -0.02   0.00  -0.01
    32   1     0.00  -0.00  -0.00    -0.00   0.01   0.00     0.01  -0.11  -0.02
    33   6     0.00  -0.00   0.00    -0.00   0.00  -0.00     0.02  -0.03   0.00
    34   1    -0.00  -0.00  -0.00    -0.00   0.01   0.00     0.02  -0.09  -0.02
    35   1     0.00  -0.00   0.00    -0.01   0.01  -0.00     0.07  -0.07   0.02
    36   6     0.00   0.00   0.00     0.00  -0.00  -0.00    -0.00   0.01  -0.00
    37   1    -0.00  -0.00  -0.00     0.00   0.00   0.00    -0.01   0.00  -0.00
    38   1    -0.00   0.00  -0.00     0.00  -0.00   0.00    -0.00   0.01   0.00
    39   1    -0.00  -0.00   0.00     0.00   0.00  -0.00    -0.01   0.00   0.00
    40   7     0.00   0.00  -0.00     0.00  -0.00   0.00    -0.00   0.00  -0.00
    41   1    -0.00  -0.01   0.01     0.02   0.04  -0.05    -0.01  -0.05   0.04
    42   6     0.00  -0.00   0.00    -0.04  -0.00  -0.00     0.04  -0.03   0.01
    43   6    -0.01  -0.01  -0.01    -0.00  -0.00   0.00    -0.00  -0.00  -0.00
    44   6    -0.00   0.00  -0.00    -0.00  -0.00   0.00    -0.00   0.00   0.00
    45   6     0.01  -0.00  -0.01     0.00   0.00  -0.00     0.00   0.00   0.00
    46   6     0.00  -0.00   0.00     0.01   0.01  -0.00     0.00   0.00  -0.00
    47   1    -0.00  -0.00   0.00    -0.01  -0.00   0.00    -0.00   0.00  -0.00
    48   6    -0.01  -0.00   0.00    -0.00   0.00  -0.00    -0.00   0.00  -0.00
    49   6     0.01  -0.00   0.00     0.00  -0.00  -0.00     0.01  -0.00  -0.00
    50   1    -0.01   0.01   0.00    -0.00   0.00   0.01    -0.01   0.00  -0.00
    51   6     0.01  -0.02  -0.05    -0.00  -0.00   0.00    -0.00  -0.00  -0.00
    52   1    -0.06   0.22   0.61    -0.00  -0.01  -0.01     0.00   0.00   0.01
    53   1     0.14   0.40  -0.05    -0.00  -0.01   0.00     0.00   0.01  -0.00
    54   1    -0.23  -0.34   0.12     0.00   0.01  -0.00    -0.00  -0.00   0.00
    55   6    -0.00   0.00   0.00     0.00  -0.00  -0.00    -0.00   0.00   0.00
    56   1     0.01   0.00  -0.00    -0.01  -0.00   0.01     0.00  -0.00   0.00
    57   1    -0.00   0.00   0.00     0.00  -0.01  -0.00    -0.00  -0.00  -0.00
    58   1    -0.00  -0.00  -0.00    -0.00   0.02   0.01    -0.00   0.00  -0.00
    59   6     0.00  -0.01  -0.02    -0.00   0.00  -0.00    -0.00  -0.00  -0.00
    60   1    -0.09   0.12   0.28    -0.00   0.00  -0.01    -0.00   0.00   0.01
    61   1     0.10   0.26   0.00     0.00  -0.00   0.00     0.01   0.01   0.01
    62   1     0.03  -0.18   0.03     0.00   0.00  -0.00     0.01  -0.01  -0.00
    63   8     0.00   0.00  -0.00    -0.00  -0.00   0.00    -0.00  -0.00   0.00
                    145                    146                    147
                      A                      A                      A
 Frequencies --   1538.0708              1592.3686              1624.7268
 Red. masses --      2.2524                 5.0490                 4.9419
 Frc consts  --      3.1394                 7.5430                 7.6861
 IR Inten    --      9.2270                16.6084                 1.7848
  Atom  AN      X      Y      Z        X      Y      Z        X      Y      Z
     1   6    -0.01  -0.01  -0.00    -0.01  -0.00  -0.00    -0.03  -0.16  -0.02
     2   6    -0.00   0.01  -0.00     0.00   0.00   0.00    -0.08   0.13  -0.02
     3   6     0.01  -0.00   0.00     0.00  -0.00   0.00     0.00  -0.21  -0.01
     4   6    -0.01  -0.01  -0.00     0.01   0.00   0.00     0.09   0.15   0.04
     5   6    -0.01   0.01  -0.00    -0.00  -0.00  -0.00     0.05  -0.17  -0.00
     6   6     0.01  -0.00   0.00     0.00   0.01   0.00    -0.02   0.30   0.02
     7   1     0.03   0.02   0.01     0.01   0.01   0.00     0.17  -0.06   0.05
     8   1     0.03  -0.01   0.01    -0.01   0.01   0.00     0.24  -0.04   0.06
     9   1     0.03   0.02   0.01    -0.01  -0.01  -0.00    -0.29  -0.07  -0.10
    10   1     0.03  -0.01   0.01     0.00  -0.01   0.00    -0.19  -0.06  -0.06
    11   1     0.01   0.01   0.00     0.00  -0.01   0.00     0.01  -0.45  -0.03
    12   6     0.02  -0.03   0.01    -0.00  -0.00   0.00     0.10   0.04  -0.08
    13   6    -0.02   0.01   0.01     0.00  -0.00  -0.00    -0.11   0.03   0.05
    14   6     0.01   0.02  -0.02     0.00  -0.00   0.00    -0.04  -0.06   0.06
    15   6     0.00   0.03  -0.02    -0.00   0.00  -0.00     0.07   0.06  -0.07
    16   1     0.09  -0.07  -0.02    -0.00   0.00   0.00     0.17  -0.16  -0.02
    17   6    -0.03   0.01   0.01    -0.00   0.00  -0.00     0.10   0.01  -0.06
    18   1     0.03  -0.09   0.04    -0.00   0.01  -0.01    -0.07   0.13  -0.03
    19   6     0.01  -0.02   0.00     0.00  -0.00   0.00    -0.14  -0.07   0.12
    20   1     0.02  -0.09   0.03    -0.00  -0.00   0.00     0.10  -0.07  -0.01
    21   1     0.08  -0.06  -0.01     0.00  -0.00  -0.00    -0.05   0.12  -0.03
    22   1     0.01  -0.02   0.01     0.00  -0.00  -0.00     0.20   0.11  -0.18
    23  16    -0.00   0.00  -0.00    -0.00  -0.00  -0.00    -0.00   0.00  -0.00
    24   8     0.00   0.00  -0.00     0.00  -0.00   0.00     0.00  -0.00  -0.00
    25   8     0.00   0.00   0.00     0.00   0.00  -0.00     0.00  -0.00  -0.00
    26   6     0.06  -0.11   0.00     0.00  -0.00   0.00     0.01   0.01   0.01
    27   6    -0.12   0.05  -0.06    -0.00   0.00  -0.00    -0.01   0.00  -0.01
    28   6     0.02   0.15   0.06     0.00   0.00  -0.00    -0.01  -0.01  -0.01
    29   6     0.04   0.09   0.05     0.00  -0.00   0.00     0.01   0.01   0.01
    30   1     0.34  -0.29   0.12     0.00  -0.00   0.00     0.01  -0.01   0.00
    31   6    -0.10   0.01  -0.05     0.00  -0.00   0.00     0.01  -0.00   0.01
    32   1     0.05  -0.50  -0.08    -0.00  -0.00   0.00    -0.01   0.01   0.00
    33   6     0.07  -0.12   0.00    -0.00  -0.00  -0.00    -0.01  -0.01  -0.01
    34   1     0.08  -0.41  -0.08     0.00  -0.00   0.00     0.01  -0.01   0.00
    35   1     0.30  -0.29   0.07     0.00  -0.00   0.00    -0.01   0.01  -0.00
    36   6    -0.01   0.03  -0.00     0.00  -0.00  -0.00     0.00   0.00   0.00
    37   1    -0.02   0.02  -0.01     0.00   0.00   0.00     0.00   0.00   0.01
    38   1    -0.02   0.05   0.00    -0.00  -0.00   0.00     0.00  -0.01   0.00
    39   1    -0.03   0.02   0.00    -0.00   0.00  -0.00     0.00   0.01  -0.00
    40   7    -0.00  -0.00   0.00     0.00  -0.00   0.00     0.01  -0.01   0.01
    41   1     0.01   0.03  -0.03    -0.04  -0.01   0.06     0.02   0.05  -0.04
    42   6    -0.01   0.01  -0.00    -0.00   0.01  -0.01    -0.02   0.02  -0.00
    43   6     0.00  -0.00   0.00     0.09   0.36  -0.09    -0.00  -0.01   0.00
    44   6     0.00  -0.00  -0.00    -0.04  -0.16   0.03    -0.00   0.00  -0.00
    45   6    -0.00   0.00   0.00    -0.15  -0.34   0.07     0.00   0.00  -0.00
    46   6    -0.00  -0.00   0.00     0.02   0.18  -0.04     0.00  -0.00   0.00
    47   1     0.00   0.00  -0.00    -0.14   0.17  -0.02    -0.00   0.00   0.00
    48   6     0.00   0.00  -0.00     0.04  -0.00   0.00     0.00   0.01  -0.00
    49   6    -0.00   0.00  -0.00     0.06  -0.04   0.02     0.00   0.00   0.00
    50   1     0.01  -0.00   0.00    -0.47   0.13  -0.06    -0.00   0.00  -0.00
    51   6     0.00   0.00   0.00     0.04   0.03  -0.01    -0.00  -0.00  -0.00
    52   1    -0.00  -0.00  -0.01     0.28   0.03   0.09    -0.01   0.00  -0.00
    53   1    -0.00  -0.00   0.00    -0.06   0.12   0.02    -0.00  -0.00   0.00
    54   1     0.00   0.00  -0.00    -0.11  -0.01  -0.08    -0.00  -0.00   0.00
    55   6    -0.00   0.00  -0.00     0.02  -0.03   0.00    -0.00   0.00  -0.00
    56   1     0.00   0.00  -0.00     0.01  -0.11   0.12     0.00  -0.00   0.00
    57   1     0.01   0.01   0.00    -0.03  -0.15  -0.04     0.00  -0.00  -0.00
    58   1     0.00  -0.01   0.01    -0.03   0.12  -0.03     0.00  -0.00   0.00
    59   6     0.00   0.00   0.00     0.01  -0.04   0.01    -0.00   0.00  -0.00
    60   1     0.00  -0.00  -0.00     0.26  -0.17   0.07    -0.00   0.00   0.00
    61   1    -0.00  -0.00  -0.00    -0.11  -0.03  -0.08     0.00   0.00   0.00
    62   1    -0.00   0.00   0.00    -0.13   0.03   0.07     0.00  -0.01   0.00
    63   8    -0.00  -0.00   0.00    -0.02   0.02  -0.00    -0.00  -0.01   0.00
                    148                    149                    150
                      A                      A                      A
 Frequencies --   1628.1759              1629.2632              1647.1484
 Red. masses --      5.9104                 5.2714                 9.5633
 Frc consts  --      9.2314                 8.2445                15.2871
 IR Inten    --      0.4102                 2.5038               337.3280
  Atom  AN      X      Y      Z        X      Y      Z        X      Y      Z
     1   6    -0.01  -0.03  -0.00    -0.03  -0.11  -0.01     0.02   0.01   0.00
     2   6    -0.02   0.03  -0.00    -0.05   0.09  -0.01    -0.01   0.00  -0.00
     3   6    -0.00  -0.05  -0.00    -0.01  -0.15  -0.01     0.01  -0.00   0.00
     4   6     0.02   0.03   0.01     0.05   0.10   0.02    -0.02  -0.00  -0.00
     5   6     0.01  -0.03   0.00     0.03  -0.11   0.00     0.02  -0.00   0.00
     6   6    -0.00   0.06   0.00    -0.01   0.19   0.01    -0.01  -0.00  -0.00
     7   1     0.04  -0.01   0.01     0.12  -0.03   0.03    -0.01  -0.01  -0.00
     8   1     0.05  -0.01   0.01     0.15  -0.01   0.03     0.00  -0.01   0.00
     9   1    -0.05  -0.01  -0.02    -0.16  -0.03  -0.05     0.01   0.01   0.00
    10   1    -0.04  -0.01  -0.01    -0.12  -0.03  -0.04    -0.02   0.01  -0.00
    11   1     0.00  -0.09  -0.01     0.01  -0.28  -0.02    -0.01   0.00  -0.00
    12   6    -0.07  -0.03   0.05    -0.15  -0.07   0.12    -0.02   0.02   0.01
    13   6     0.07  -0.01  -0.03     0.16  -0.03  -0.07     0.04  -0.03  -0.01
    14   6     0.03   0.04  -0.04     0.05   0.10  -0.08     0.02  -0.04   0.01
    15   6    -0.04  -0.04   0.05    -0.09  -0.09   0.10    -0.02   0.04  -0.01
    16   1    -0.11   0.11   0.01    -0.23   0.23   0.01    -0.06   0.03   0.02
    17   6    -0.06  -0.01   0.04    -0.14  -0.01   0.09    -0.04   0.04   0.01
    18   1     0.05  -0.08   0.02     0.10  -0.18   0.04     0.01   0.04  -0.03
    19   6     0.09   0.05  -0.08     0.20   0.11  -0.17     0.02  -0.02  -0.00
    20   1    -0.07   0.06   0.00    -0.14   0.13   0.01    -0.01  -0.04   0.03
    21   1     0.03  -0.08   0.02     0.07  -0.16   0.05     0.06  -0.03  -0.02
    22   1    -0.13  -0.07   0.11    -0.29  -0.15   0.24     0.01  -0.03   0.01
    23  16    -0.01  -0.01  -0.01     0.01   0.00   0.01     0.00   0.00  -0.00
    24   8     0.00   0.01   0.00    -0.00  -0.00  -0.00    -0.00  -0.00   0.00
    25   8     0.01  -0.00   0.00    -0.00  -0.00  -0.00    -0.00  -0.00   0.00
    26   6     0.24   0.13   0.18    -0.09  -0.05  -0.07     0.01  -0.06  -0.01
    27   6    -0.20   0.01  -0.11     0.08  -0.01   0.04    -0.07   0.09  -0.01
    28   6    -0.10  -0.16  -0.11     0.04   0.06   0.04    -0.03   0.12   0.02
    29   6     0.10   0.15   0.10    -0.04  -0.05  -0.04     0.03  -0.15  -0.03
    30   1     0.15  -0.25   0.02    -0.06   0.10  -0.01     0.11  -0.03   0.06
    31   6     0.17   0.00   0.10    -0.07   0.00  -0.04     0.08  -0.10   0.02
    32   1    -0.13   0.25  -0.02     0.05  -0.09   0.00    -0.05  -0.12   0.00
    33   6    -0.22  -0.13  -0.17     0.08   0.05   0.06    -0.04   0.10   0.01
    34   1     0.13  -0.24   0.00    -0.05   0.09  -0.00     0.01   0.20   0.06
    35   1    -0.13   0.23   0.00     0.05  -0.09  -0.00    -0.14   0.05  -0.06
    36   6     0.02   0.01   0.01    -0.01  -0.00  -0.01     0.01  -0.02  -0.00
    37   1     0.06   0.09   0.12    -0.03  -0.03  -0.04     0.00  -0.02  -0.02
    38   1     0.04  -0.25   0.03    -0.01   0.09  -0.01     0.00   0.02   0.01
    39   1    -0.00   0.20  -0.08     0.00  -0.07   0.03    -0.02  -0.03   0.01
    40   7     0.00   0.01  -0.00    -0.01  -0.00   0.00    -0.00  -0.01   0.01
    41   1    -0.00  -0.03   0.03     0.02   0.01  -0.04     0.03   0.03  -0.06
    42   6     0.01   0.01  -0.00     0.03   0.03  -0.01     0.00   0.01  -0.00
    43   6    -0.00  -0.01   0.00    -0.00  -0.00   0.00    -0.02  -0.10   0.02
    44   6    -0.00  -0.00   0.00    -0.00  -0.00   0.00    -0.02  -0.18   0.03
    45   6     0.00   0.00  -0.00     0.00   0.01  -0.00     0.00   0.03  -0.00
    46   6     0.00   0.00  -0.00     0.00   0.01  -0.00    -0.00   0.10  -0.02
    47   1    -0.00   0.01  -0.00    -0.00   0.01  -0.00    -0.12   0.20  -0.03
    48   6     0.00   0.01  -0.00    -0.01  -0.02   0.01     0.22   0.56  -0.17
    49   6     0.00   0.00  -0.00     0.00  -0.00  -0.00     0.00   0.06  -0.01
    50   1     0.00   0.00   0.00     0.01   0.00   0.01     0.00   0.07   0.01
    51   6    -0.00  -0.00  -0.00    -0.00  -0.00   0.00     0.02   0.01  -0.01
    52   1    -0.01   0.00   0.00     0.00  -0.00  -0.00    -0.17   0.05  -0.01
    53   1     0.00  -0.00  -0.00     0.00   0.00  -0.00    -0.06  -0.07   0.02
    54   1    -0.00  -0.00   0.00     0.00   0.01  -0.00    -0.07  -0.10   0.03
    55   6     0.00   0.00   0.00     0.00  -0.00  -0.00     0.00  -0.00   0.00
    56   1     0.00  -0.01   0.01    -0.01  -0.00   0.00     0.10  -0.04   0.03
    57   1    -0.00  -0.01  -0.01     0.00  -0.01  -0.00     0.05  -0.05  -0.03
    58   1    -0.00   0.00  -0.00    -0.00   0.01   0.00     0.03  -0.09  -0.00
    59   6    -0.00   0.00  -0.00     0.00   0.00  -0.00    -0.00   0.01  -0.01
    60   1    -0.01   0.00  -0.00    -0.01   0.01  -0.00    -0.05   0.04  -0.00
    61   1     0.00   0.00   0.00     0.01   0.00   0.00     0.03   0.02   0.02
    62   1     0.00  -0.00  -0.00     0.01   0.00  -0.00     0.03  -0.01  -0.02
    63   8    -0.00  -0.01   0.00     0.00   0.01  -0.00    -0.13  -0.37   0.11
                    151                    152                    153
                      A                      A                      A
 Frequencies --   1650.1738              1653.9602              1655.0595
 Red. masses --      5.2752                 5.4418                 5.7785
 Frc consts  --      8.4634                 8.7708                 9.3259
 IR Inten    --      1.5071                 2.1890                18.7804
  Atom  AN      X      Y      Z        X      Y      Z        X      Y      Z
     1   6    -0.21  -0.06  -0.06    -0.15  -0.04  -0.04    -0.10  -0.03  -0.03
     2   6     0.21  -0.04   0.06     0.15  -0.03   0.04     0.11  -0.03   0.03
     3   6    -0.12  -0.01  -0.03    -0.09  -0.00  -0.02    -0.06  -0.00  -0.02
     4   6     0.20   0.05   0.06     0.14   0.04   0.04     0.10   0.02   0.03
     5   6    -0.20   0.05  -0.05    -0.14   0.04  -0.04    -0.10   0.03  -0.03
     6   6     0.11  -0.00   0.03     0.07  -0.01   0.02     0.05  -0.01   0.01
     7   1     0.20   0.20   0.07     0.13   0.14   0.04     0.09   0.10   0.03
     8   1    -0.21   0.20  -0.04    -0.15   0.14  -0.03    -0.12   0.10  -0.03
     9   1    -0.19  -0.20  -0.08    -0.13  -0.13  -0.05    -0.09  -0.10  -0.04
    10   1     0.21  -0.18   0.04     0.15  -0.12   0.03     0.10  -0.09   0.02
    11   1     0.12   0.01   0.03     0.08   0.02   0.02     0.06   0.02   0.02
    12   6    -0.05   0.09  -0.02     0.05  -0.09   0.02     0.04  -0.07   0.02
    13   6     0.12  -0.13  -0.00    -0.11   0.12   0.00    -0.08   0.09   0.00
    14   6     0.07  -0.18   0.06    -0.07   0.17  -0.05    -0.05   0.12  -0.04
    15   6    -0.06   0.17  -0.06     0.05  -0.16   0.06     0.04  -0.11   0.04
    16   1    -0.21   0.08   0.08     0.21  -0.08  -0.08     0.15  -0.06  -0.05
    17   6    -0.13   0.14  -0.00     0.12  -0.13   0.00     0.08  -0.09   0.00
    18   1     0.01   0.23  -0.14    -0.01  -0.22   0.13    -0.01  -0.16   0.09
    19   6     0.03  -0.09   0.03    -0.03   0.08  -0.02    -0.02   0.06  -0.02
    20   1     0.00  -0.21   0.12     0.00   0.20  -0.11     0.00   0.14  -0.08
    21   1     0.22  -0.08  -0.09    -0.20   0.07   0.08    -0.14   0.05   0.06
    22   1     0.09  -0.07  -0.01    -0.08   0.07   0.01    -0.06   0.05   0.01
    23  16    -0.00  -0.00   0.00    -0.00  -0.00  -0.00     0.00   0.00  -0.00
    24   8     0.00  -0.00  -0.00    -0.00   0.00   0.00    -0.00  -0.00   0.00
    25   8     0.00   0.00  -0.00     0.00  -0.00   0.00    -0.00   0.00   0.00
    26   6    -0.00   0.00  -0.00     0.04  -0.06   0.00    -0.05   0.09  -0.01
    27   6     0.00  -0.00   0.00    -0.09   0.11  -0.02     0.13  -0.15   0.03
    28   6     0.00  -0.00  -0.00    -0.05   0.14   0.02     0.07  -0.20  -0.02
    29   6    -0.00   0.01   0.00     0.04  -0.16  -0.02    -0.06   0.22   0.03
    30   1    -0.00   0.00  -0.00     0.15  -0.06   0.07    -0.22   0.08  -0.11
    31   6    -0.00   0.00  -0.00     0.11  -0.13   0.03    -0.16   0.18  -0.04
    32   1     0.00   0.01   0.00    -0.04  -0.17  -0.06     0.05   0.25   0.11
    33   6     0.00  -0.00  -0.00    -0.06   0.11  -0.00     0.08  -0.16   0.00
    34   1    -0.00  -0.01  -0.00     0.02   0.21   0.08    -0.03  -0.30  -0.11
    35   1     0.01  -0.00   0.00    -0.20   0.09  -0.08     0.28  -0.14   0.12
    36   6    -0.00   0.00  -0.00     0.01  -0.02  -0.00    -0.02   0.02   0.00
    37   1    -0.00   0.00   0.00     0.01  -0.02  -0.01    -0.01   0.03   0.02
    38   1    -0.00  -0.00  -0.00     0.00   0.01   0.02    -0.00  -0.01  -0.03
    39   1     0.00   0.00  -0.00    -0.03  -0.02   0.00     0.04   0.03  -0.01
    40   7    -0.00   0.00   0.00     0.00   0.00   0.00     0.00   0.00   0.00
    41   1    -0.00  -0.00   0.01    -0.00   0.01   0.01     0.01   0.01  -0.01
    42   6     0.01  -0.01   0.00    -0.00   0.00  -0.01    -0.00   0.00  -0.01
    43   6     0.00   0.00  -0.00     0.02   0.04  -0.01    -0.00  -0.02   0.00
    44   6     0.00   0.03  -0.01     0.01   0.09  -0.02    -0.00  -0.04   0.01
    45   6    -0.00  -0.00   0.00    -0.02  -0.04   0.01    -0.00   0.00   0.00
    46   6    -0.00  -0.03   0.01    -0.01  -0.09   0.02    -0.00   0.02  -0.00
    47   1     0.02  -0.03   0.00     0.06  -0.10   0.01    -0.03   0.04  -0.01
    48   6    -0.01  -0.01   0.00    -0.01  -0.01   0.00     0.07   0.17  -0.05
    49   6     0.00  -0.00   0.00    -0.00  -0.02   0.01     0.00   0.02   0.00
    50   1     0.01  -0.01  -0.01     0.01  -0.04  -0.03     0.00   0.01  -0.01
    51   6    -0.00   0.00  -0.00     0.00   0.00  -0.00     0.01   0.00  -0.00
    52   1     0.00  -0.00   0.00     0.03   0.00   0.01    -0.05   0.01  -0.00
    53   1     0.00   0.00  -0.00    -0.00   0.01   0.00    -0.02  -0.02   0.01
    54   1     0.00   0.00   0.00    -0.01  -0.00  -0.01    -0.02  -0.03   0.01
    55   6    -0.00   0.00  -0.00    -0.01   0.01  -0.00     0.00   0.00   0.00
    56   1    -0.00   0.01  -0.01    -0.01   0.04  -0.04     0.03  -0.01   0.01
    57   1    -0.00   0.01   0.00     0.01   0.04   0.01     0.01  -0.01  -0.01
    58   1     0.00  -0.01  -0.00     0.01  -0.04   0.01     0.01  -0.03  -0.01
    59   6     0.00  -0.00   0.00    -0.00  -0.00   0.00    -0.00   0.00  -0.00
    60   1     0.00  -0.00  -0.00     0.02  -0.02   0.01    -0.01   0.01   0.00
    61   1    -0.00   0.00   0.00    -0.01   0.00  -0.01     0.01   0.00   0.01
    62   1     0.00   0.00  -0.00    -0.01   0.01   0.00     0.01  -0.00  -0.00
    63   8     0.00   0.01  -0.00     0.01   0.02  -0.01    -0.04  -0.11   0.03
                    154                    155                    156
                      A                      A                      A
 Frequencies --   1671.2501              3026.9539              3039.8869
 Red. masses --      6.4999                 1.0419                 1.0385
 Frc consts  --     10.6965                 5.6246                 5.6544
 IR Inten    --     94.1778                41.2983                24.4055
  Atom  AN      X      Y      Z        X      Y      Z        X      Y      Z
     1   6    -0.04  -0.01  -0.01    -0.00   0.00  -0.00    -0.00   0.00  -0.00
     2   6     0.05  -0.02   0.01     0.00  -0.00  -0.00    -0.00  -0.00  -0.00
     3   6    -0.04   0.00  -0.01    -0.00  -0.00  -0.00     0.00   0.00   0.00
     4   6     0.05   0.01   0.01     0.00   0.00   0.00    -0.00   0.00  -0.00
     5   6    -0.05   0.02  -0.01    -0.00  -0.00  -0.00     0.00   0.00   0.00
     6   6     0.02  -0.01   0.01    -0.00  -0.00  -0.00     0.00  -0.00   0.00
     7   1     0.03   0.04   0.01     0.00  -0.00   0.00     0.00  -0.00   0.00
     8   1    -0.08   0.06  -0.02     0.00   0.00   0.00    -0.00  -0.00   0.00
     9   1    -0.05  -0.05  -0.02    -0.00   0.00   0.00     0.00  -0.00   0.00
    10   1     0.04  -0.04   0.01     0.00   0.00   0.00    -0.00  -0.00  -0.00
    11   1     0.02   0.01   0.01     0.00  -0.00   0.00    -0.00   0.00  -0.00
    12   6     0.02  -0.02  -0.01     0.00   0.00  -0.00     0.00   0.00  -0.00
    13   6    -0.03   0.02   0.01     0.00   0.00   0.00    -0.00  -0.00   0.00
    14   6    -0.01   0.03  -0.01     0.00  -0.00   0.00    -0.00   0.00   0.00
    15   6     0.01  -0.03   0.01     0.00   0.00  -0.00    -0.00   0.00   0.00
    16   1     0.05  -0.03  -0.01    -0.00  -0.00  -0.00     0.00   0.00  -0.00
    17   6     0.03  -0.02  -0.00    -0.00  -0.00   0.00     0.00   0.00  -0.00
    18   1    -0.01  -0.05   0.02    -0.00   0.00   0.00    -0.00  -0.00   0.00
    19   6    -0.01   0.01   0.00     0.00  -0.00   0.00    -0.00   0.00  -0.00
    20   1     0.01   0.02  -0.02    -0.00  -0.00   0.00     0.00  -0.00  -0.00
    21   1    -0.04   0.02   0.01     0.00   0.00  -0.00    -0.00  -0.00   0.00
    22   1    -0.01   0.02  -0.01    -0.00   0.00  -0.00     0.00  -0.00   0.00
    23  16     0.00  -0.00   0.00    -0.00  -0.00   0.00     0.00  -0.00   0.00
    24   8     0.00   0.00  -0.00     0.00   0.00  -0.00    -0.00   0.00  -0.00
    25   8    -0.00   0.00  -0.00     0.00   0.00  -0.00    -0.00   0.00  -0.00
    26   6     0.01  -0.01   0.00     0.00   0.00  -0.00    -0.00  -0.00  -0.00
    27   6    -0.02   0.02  -0.00     0.00   0.00   0.00     0.00   0.00   0.00
    28   6    -0.01   0.03   0.00     0.00  -0.00   0.00    -0.00   0.00  -0.00
    29   6     0.01  -0.02  -0.00    -0.00   0.00  -0.00     0.00  -0.00   0.00
    30   1     0.03  -0.01   0.01    -0.00  -0.00   0.00    -0.00   0.00   0.00
    31   6     0.02  -0.02   0.00    -0.00  -0.00  -0.00     0.00  -0.00  -0.00
    32   1     0.01  -0.05  -0.04    -0.00   0.00   0.00    -0.00   0.00  -0.00
    33   6    -0.01   0.02  -0.00     0.00  -0.00   0.00     0.00  -0.00  -0.00
    34   1     0.00   0.03   0.01     0.00  -0.00   0.00    -0.01   0.00  -0.00
    35   1    -0.04   0.02  -0.02     0.00   0.00   0.00     0.00   0.01   0.00
    36   6     0.00  -0.00  -0.00    -0.00   0.00  -0.00    -0.01   0.05  -0.01
    37   1     0.00  -0.00  -0.00    -0.00  -0.00   0.00    -0.32  -0.44   0.48
    38   1    -0.00   0.00   0.01     0.00   0.00   0.00     0.44   0.06   0.12
    39   1    -0.01  -0.00   0.00    -0.00  -0.00  -0.00    -0.02  -0.21  -0.46
    40   7     0.00   0.01  -0.01     0.00   0.00  -0.00     0.00   0.00  -0.00
    41   1     0.01  -0.01   0.01    -0.00  -0.00   0.00    -0.00  -0.00  -0.00
    42   6     0.00  -0.00   0.03     0.00   0.00   0.00    -0.00  -0.00   0.00
    43   6    -0.08  -0.17   0.04     0.00   0.00  -0.00     0.00  -0.00  -0.00
    44   6    -0.03  -0.39   0.07    -0.00  -0.00   0.00    -0.00   0.00  -0.00
    45   6     0.08   0.19  -0.04    -0.00  -0.00   0.00     0.00  -0.00   0.00
    46   6     0.07   0.40  -0.09    -0.00   0.00  -0.00     0.00   0.00  -0.00
    47   1    -0.24   0.43  -0.05     0.00  -0.00  -0.00     0.00   0.00  -0.00
    48   6    -0.05  -0.19   0.05     0.00  -0.00   0.00    -0.00  -0.00   0.00
    49   6     0.02   0.08  -0.03    -0.00  -0.00   0.00     0.00  -0.00  -0.00
    50   1    -0.05   0.15   0.07    -0.00   0.00  -0.00     0.00  -0.00  -0.00
    51   6    -0.02  -0.02   0.01    -0.05   0.01  -0.02     0.00  -0.00   0.00
    52   1    -0.06  -0.03  -0.02     0.03   0.29  -0.11    -0.00  -0.00   0.00
    53   1     0.05  -0.00  -0.02     0.27  -0.04   0.72    -0.00   0.00  -0.00
    54   1     0.07   0.04   0.01     0.29  -0.34  -0.32    -0.00   0.00   0.00
    55   6     0.02  -0.05   0.01    -0.00   0.00  -0.00     0.00  -0.00   0.00
    56   1     0.00  -0.16   0.17    -0.00  -0.00  -0.00     0.01   0.02   0.01
    57   1    -0.03  -0.20  -0.04    -0.00  -0.00   0.00     0.00   0.01  -0.02
    58   1    -0.07   0.23  -0.04     0.00   0.00  -0.00    -0.02  -0.01   0.01
    59   6     0.01   0.02  -0.00    -0.00   0.00  -0.00    -0.00   0.00  -0.00
    60   1    -0.10   0.07  -0.03    -0.01  -0.02   0.01    -0.00  -0.00   0.00
    61   1     0.04  -0.01   0.02     0.03  -0.01  -0.03     0.01  -0.00  -0.01
    62   1     0.05  -0.03  -0.01     0.03   0.01   0.05     0.01   0.00   0.01
    63   8     0.01   0.07  -0.02     0.00   0.00  -0.00    -0.00   0.00  -0.00
                    157                    158                    159
                      A                      A                      A
 Frequencies --   3041.2108              3042.0577              3076.8715
 Red. masses --      1.0396                 1.0352                 1.0985
 Frc consts  --      5.6653                 5.6444                 6.1274
 IR Inten    --     16.4850                21.9269                17.2277
  Atom  AN      X      Y      Z        X      Y      Z        X      Y      Z
     1   6    -0.00   0.00  -0.00     0.00  -0.00  -0.00     0.00  -0.00   0.00
     2   6    -0.00   0.00  -0.00     0.00   0.00   0.00    -0.00   0.00   0.00
     3   6     0.00  -0.00  -0.00     0.00  -0.00  -0.00     0.00  -0.00  -0.00
     4   6    -0.00  -0.00  -0.00     0.00  -0.00   0.00    -0.00  -0.00  -0.00
     5   6    -0.00  -0.00  -0.00     0.00   0.00   0.00     0.00  -0.00   0.00
     6   6    -0.00  -0.00  -0.00     0.00   0.00  -0.00    -0.00   0.00  -0.00
     7   1     0.00  -0.00   0.00    -0.00   0.00   0.00    -0.00   0.00  -0.00
     8   1     0.00   0.00   0.00    -0.00  -0.00   0.00     0.00   0.00  -0.00
     9   1    -0.00   0.00   0.00    -0.00   0.00  -0.00     0.00  -0.00   0.00
    10   1     0.00   0.00   0.00    -0.00  -0.00  -0.00    -0.00  -0.00  -0.00
    11   1     0.00  -0.00   0.00     0.00   0.00   0.00     0.00   0.00   0.00
    12   6     0.00  -0.00   0.00     0.00   0.00   0.00     0.00  -0.00   0.00
    13   6     0.00   0.00   0.00     0.00   0.00  -0.00    -0.00  -0.00  -0.00
    14   6     0.00   0.00   0.00    -0.00  -0.00  -0.00    -0.00   0.00   0.00
    15   6     0.00   0.00   0.00    -0.00  -0.00   0.00    -0.00  -0.00  -0.00
    16   1     0.00   0.00  -0.00     0.00   0.00  -0.00     0.00   0.00  -0.00
    17   6     0.00   0.00   0.00     0.00   0.00  -0.00    -0.00  -0.00   0.00
    18   1    -0.00   0.00   0.00    -0.00  -0.00   0.00     0.00  -0.00  -0.00
    19   6    -0.00  -0.00   0.00    -0.00   0.00  -0.00     0.00  -0.00  -0.00
    20   1    -0.00  -0.00   0.00     0.00  -0.00  -0.00     0.00   0.00  -0.00
    21   1     0.00   0.00  -0.00    -0.00  -0.00   0.00     0.00   0.00  -0.00
    22   1    -0.00   0.00  -0.00     0.00  -0.00   0.00    -0.00   0.00  -0.00
    23  16    -0.00  -0.00   0.00    -0.00   0.00  -0.00     0.00   0.00  -0.00
    24   8     0.00   0.00  -0.00    -0.00  -0.00   0.00    -0.00  -0.00  -0.00
    25   8    -0.00  -0.00  -0.00     0.00   0.00   0.00    -0.00  -0.00   0.00
    26   6     0.00   0.00  -0.00     0.00   0.00   0.00    -0.00  -0.00   0.00
    27   6     0.00   0.00   0.00    -0.00   0.00   0.00    -0.00  -0.00  -0.00
    28   6    -0.00  -0.00  -0.00     0.00  -0.00  -0.00     0.00  -0.00   0.00
    29   6    -0.00   0.00  -0.00     0.00  -0.00   0.00    -0.00   0.00  -0.00
    30   1     0.00  -0.00   0.00    -0.00  -0.00   0.00     0.00   0.00   0.00
    31   6    -0.00   0.00  -0.00     0.00  -0.00  -0.00    -0.00   0.00   0.00
    32   1     0.00  -0.00   0.00     0.00   0.00   0.00    -0.00  -0.00  -0.00
    33   6    -0.00   0.00  -0.00    -0.00   0.00  -0.00     0.00   0.00   0.00
    34   1     0.00  -0.00   0.00    -0.00   0.00  -0.00     0.00  -0.00   0.00
    35   1    -0.00  -0.00  -0.00     0.00   0.00   0.00    -0.00  -0.00  -0.00
    36   6     0.00  -0.00   0.00    -0.00   0.00  -0.00    -0.00  -0.00   0.00
    37   1     0.00   0.01  -0.01    -0.01  -0.02   0.02     0.00   0.00  -0.00
    38   1    -0.01  -0.00  -0.00     0.02   0.00   0.00     0.00   0.00   0.00
    39   1     0.00   0.00   0.01    -0.00  -0.01  -0.02    -0.00  -0.00  -0.00
    40   7     0.00   0.00  -0.00     0.00  -0.00   0.00     0.00   0.00   0.00
    41   1    -0.00  -0.00   0.00     0.00  -0.00  -0.00    -0.00  -0.00  -0.00
    42   6    -0.00   0.00   0.00    -0.00  -0.00  -0.00    -0.00   0.00  -0.00
    43   6     0.00  -0.00  -0.00     0.00  -0.00   0.00     0.00  -0.00   0.00
    44   6    -0.00   0.00  -0.00     0.00  -0.00   0.00     0.00  -0.00   0.00
    45   6    -0.00  -0.00   0.00    -0.00  -0.00   0.00    -0.00  -0.00  -0.00
    46   6    -0.00  -0.00   0.00    -0.00  -0.00   0.00     0.00   0.00  -0.00
    47   1     0.00   0.00   0.00    -0.01  -0.00   0.00     0.00   0.00   0.00
    48   6     0.00   0.00  -0.00     0.00   0.00  -0.00    -0.00  -0.00  -0.00
    49   6     0.00  -0.00   0.00    -0.00   0.00   0.00    -0.00   0.00  -0.00
    50   1     0.00   0.01  -0.00    -0.00   0.00  -0.00    -0.00  -0.00   0.00
    51   6     0.00  -0.00   0.00     0.00  -0.00   0.00     0.02  -0.03  -0.08
    52   1    -0.00  -0.03   0.01    -0.00  -0.00   0.00    -0.01  -0.10   0.01
    53   1    -0.02   0.00  -0.05    -0.00   0.00  -0.00     0.22  -0.05   0.54
    54   1    -0.03   0.03   0.03    -0.00   0.00   0.00    -0.42   0.50   0.43
    55   6    -0.00   0.00  -0.00    -0.03   0.04  -0.01     0.00   0.00   0.00
    56   1    -0.01  -0.01  -0.01    -0.15  -0.41  -0.30    -0.00  -0.00  -0.00
    57   1    -0.00  -0.01   0.02    -0.02  -0.19   0.60     0.00   0.00  -0.00
    58   1     0.02   0.01  -0.00     0.52   0.15  -0.14     0.00   0.00  -0.00
    59   6    -0.05   0.02  -0.01     0.00  -0.00   0.00     0.00  -0.00  -0.01
    60   1    -0.19  -0.31   0.08     0.01   0.01  -0.00     0.00   0.01  -0.00
    61   1     0.39  -0.12  -0.47    -0.01   0.00   0.02    -0.08   0.03   0.09
    62   1     0.36   0.20   0.55    -0.01  -0.01  -0.02     0.06   0.03   0.08
    63   8    -0.00   0.00  -0.00     0.00  -0.00   0.00    -0.00   0.00   0.00
                    160                    161                    162
                      A                      A                      A
 Frequencies --   3094.9895              3101.4830              3103.2441
 Red. masses --      1.0999                 1.0984                 1.0988
 Frc consts  --      6.2075                 6.2249                 6.2342
 IR Inten    --      5.6170                12.4978                11.4377
  Atom  AN      X      Y      Z        X      Y      Z        X      Y      Z
     1   6    -0.00   0.00  -0.00    -0.00   0.00   0.00    -0.00  -0.00  -0.00
     2   6     0.00  -0.00   0.00    -0.00  -0.00   0.00     0.00   0.00   0.00
     3   6    -0.00   0.00   0.00    -0.00  -0.00  -0.00     0.00  -0.00   0.00
     4   6    -0.00   0.00  -0.00    -0.00   0.00  -0.00     0.00  -0.00   0.00
     5   6    -0.00  -0.00  -0.00     0.00   0.00   0.00    -0.00  -0.00  -0.00
     6   6    -0.00   0.00  -0.00    -0.00   0.00  -0.00    -0.00   0.00  -0.00
     7   1     0.00  -0.00  -0.00     0.00  -0.00  -0.00    -0.00   0.00  -0.00
     8   1    -0.00  -0.00  -0.00     0.00   0.00  -0.00    -0.00  -0.01  -0.00
     9   1     0.00  -0.00   0.00     0.00  -0.00  -0.00    -0.00   0.00  -0.00
    10   1     0.00   0.00   0.00    -0.00  -0.00  -0.00     0.00   0.00   0.00
    11   1     0.00   0.00   0.00     0.00  -0.00  -0.00     0.00  -0.00   0.00
    12   6    -0.00   0.00  -0.00    -0.00  -0.00   0.00    -0.00   0.00  -0.00
    13   6    -0.00  -0.00  -0.00     0.00   0.00  -0.00     0.00  -0.00   0.00
    14   6    -0.00   0.00   0.00    -0.00   0.00   0.00     0.00  -0.00   0.00
    15   6    -0.00  -0.00  -0.00    -0.00  -0.00   0.00     0.00   0.00  -0.00
    16   1     0.00   0.00  -0.00    -0.00  -0.00   0.00    -0.00   0.00   0.00
    17   6    -0.00  -0.00   0.00    -0.00  -0.00   0.00    -0.00  -0.00   0.00
    18   1     0.00  -0.00  -0.00     0.00  -0.00  -0.00    -0.00   0.00  -0.00
    19   6     0.00  -0.00  -0.00     0.00  -0.00   0.00     0.00  -0.00   0.00
    20   1    -0.00   0.00   0.00     0.00  -0.00  -0.00    -0.00   0.00   0.00
    21   1     0.00   0.00  -0.00    -0.00  -0.00   0.00     0.00   0.00  -0.00
    22   1    -0.00   0.00  -0.00    -0.00   0.00  -0.00    -0.00   0.00  -0.00
    23  16     0.00  -0.00   0.00    -0.00   0.00  -0.00    -0.00  -0.00   0.00
    24   8    -0.00   0.00   0.00     0.00  -0.00   0.00     0.00   0.00  -0.00
    25   8     0.00   0.00   0.00    -0.00  -0.00   0.00    -0.00   0.00  -0.00
    26   6    -0.00   0.00  -0.00     0.00  -0.00  -0.00     0.00   0.00   0.00
    27   6     0.00   0.00  -0.00    -0.00   0.00  -0.00    -0.00   0.00   0.00
    28   6    -0.00  -0.00  -0.00    -0.00   0.00   0.00     0.00  -0.00  -0.00
    29   6    -0.00   0.00  -0.00    -0.00   0.00  -0.00     0.00   0.00   0.00
    30   1     0.00  -0.00   0.00    -0.00  -0.00  -0.00    -0.00  -0.00   0.00
    31   6    -0.00   0.00  -0.00     0.00   0.00   0.00    -0.00  -0.00  -0.00
    32   1     0.00   0.00   0.00     0.00  -0.00   0.00     0.00  -0.00   0.00
    33   6     0.00  -0.00   0.00    -0.00   0.00  -0.00    -0.00   0.00  -0.00
    34   1     0.00  -0.00   0.00     0.01  -0.00   0.00    -0.00   0.00  -0.00
    35   1     0.00  -0.00   0.00    -0.00  -0.01  -0.00     0.00   0.00   0.00
    36   6    -0.00  -0.00   0.00     0.05   0.01  -0.07     0.00   0.00  -0.00
    37   1     0.00   0.00  -0.00    -0.29  -0.41   0.43    -0.00  -0.00   0.00
    38   1     0.00   0.00   0.00    -0.35  -0.04  -0.11    -0.01  -0.00  -0.00
    39   1    -0.00  -0.00  -0.00     0.04   0.29   0.57     0.00   0.00   0.00
    40   7     0.00   0.00   0.00    -0.00  -0.00   0.00    -0.00   0.00  -0.00
    41   1    -0.00  -0.00  -0.00     0.00  -0.00   0.00     0.00   0.00   0.00
    42   6     0.00  -0.00  -0.00     0.00   0.00  -0.00    -0.00  -0.00  -0.00
    43   6     0.00  -0.00  -0.00    -0.00   0.00   0.00     0.00   0.00   0.00
    44   6     0.00  -0.00   0.00    -0.00   0.00   0.00    -0.00  -0.00  -0.00
    45   6     0.00   0.00   0.00    -0.00   0.00   0.00     0.00  -0.00  -0.00
    46   6     0.00   0.00  -0.00     0.00  -0.00   0.00    -0.00   0.00  -0.00
    47   1    -0.00  -0.00   0.00     0.00   0.00  -0.00     0.00   0.00   0.00
    48   6     0.00  -0.00  -0.00     0.00   0.00  -0.00    -0.00   0.00   0.00
    49   6    -0.00  -0.00  -0.00     0.00   0.00   0.00    -0.00   0.00  -0.00
    50   1     0.00   0.00  -0.00    -0.00  -0.00   0.00     0.00  -0.00   0.00
    51   6    -0.00   0.00   0.01     0.00  -0.00  -0.00    -0.00  -0.00  -0.00
    52   1     0.00   0.02  -0.00     0.00   0.00  -0.00    -0.00  -0.00   0.00
    53   1    -0.04   0.01  -0.09     0.00  -0.00   0.00     0.00  -0.00   0.00
    54   1     0.07  -0.08  -0.07    -0.00   0.00   0.00    -0.00   0.00   0.00
    55   6    -0.00  -0.00   0.00    -0.00   0.00   0.00     0.00  -0.02  -0.09
    56   1    -0.00  -0.00  -0.00    -0.00  -0.00  -0.00     0.18   0.50   0.34
    57   1     0.00   0.00  -0.00     0.00   0.00  -0.01    -0.02  -0.24   0.69
    58   1     0.00   0.00  -0.00     0.00   0.00  -0.00    -0.22  -0.07   0.04
    59   6     0.01  -0.03  -0.09     0.00  -0.00  -0.00     0.00  -0.00  -0.00
    60   1     0.01  -0.00  -0.02     0.00   0.00  -0.00    -0.00  -0.00   0.00
    61   1    -0.48   0.14   0.53    -0.00   0.00   0.00    -0.00   0.00   0.00
    62   1     0.36   0.19   0.52     0.00   0.00   0.00     0.00   0.00   0.00
    63   8    -0.00   0.00  -0.00    -0.00   0.00   0.00    -0.00   0.00   0.00
                    163                    164                    165
                      A                      A                      A
 Frequencies --   3126.6997              3128.1661              3147.9901
 Red. masses --      1.1043                 1.1031                 1.0991
 Frc consts  --      6.3608                 6.3600                 6.4176
 IR Inten    --      8.0275                12.7951                 8.2691
  Atom  AN      X      Y      Z        X      Y      Z        X      Y      Z
     1   6     0.00  -0.00   0.00     0.00  -0.00   0.00     0.00  -0.00   0.00
     2   6    -0.00  -0.00  -0.00    -0.00  -0.00  -0.00     0.00   0.00  -0.00
     3   6    -0.00   0.00  -0.00    -0.00   0.00   0.00     0.00   0.00  -0.00
     4   6     0.00  -0.00   0.00     0.00  -0.00   0.00     0.00  -0.00  -0.00
     5   6     0.00   0.00   0.00     0.00   0.00   0.00     0.00   0.00   0.00
     6   6    -0.00   0.00  -0.00     0.00  -0.00   0.00    -0.00  -0.00  -0.00
     7   1    -0.00   0.00  -0.00    -0.00   0.00  -0.00    -0.00   0.00  -0.00
     8   1     0.00   0.00   0.00     0.00   0.00   0.00    -0.00  -0.00   0.00
     9   1    -0.00  -0.00  -0.00     0.00  -0.00  -0.00     0.00   0.00   0.00
    10   1    -0.00  -0.00  -0.00    -0.00  -0.00  -0.00    -0.00  -0.00  -0.00
    11   1     0.00   0.00   0.00    -0.00   0.00  -0.00     0.00   0.00   0.00
    12   6     0.00  -0.00   0.00     0.00  -0.00   0.00     0.00  -0.00  -0.00
    13   6    -0.00   0.00   0.00    -0.00  -0.00   0.00     0.00   0.00  -0.00
    14   6     0.00  -0.00  -0.00     0.00   0.00  -0.00    -0.00  -0.00  -0.00
    15   6    -0.00  -0.00   0.00    -0.00  -0.00   0.00     0.00  -0.00   0.00
    16   1     0.00   0.00  -0.00     0.00   0.00  -0.00    -0.00  -0.00   0.00
    17   6     0.00   0.00  -0.00     0.00   0.00  -0.00    -0.00  -0.00  -0.00
    18   1    -0.00   0.00   0.00    -0.00   0.00   0.00    -0.00   0.00   0.00
    19   6     0.00  -0.00  -0.00    -0.00   0.00  -0.00     0.00  -0.00   0.00
    20   1     0.00  -0.00  -0.00     0.00  -0.00  -0.00    -0.00   0.00   0.00
    21   1    -0.00  -0.00   0.00    -0.00  -0.00   0.00     0.00  -0.00   0.00
    22   1    -0.00   0.00  -0.00     0.00  -0.00   0.00    -0.00   0.00  -0.00
    23  16    -0.00  -0.00  -0.00     0.00  -0.00   0.00    -0.00  -0.00  -0.00
    24   8    -0.00  -0.00   0.00    -0.00   0.00   0.00     0.00   0.00   0.00
    25   8     0.00   0.00   0.00     0.00   0.00   0.00     0.00   0.00   0.00
    26   6    -0.00  -0.00  -0.00     0.00   0.00   0.00     0.00   0.00   0.00
    27   6     0.00   0.00   0.00    -0.00   0.00  -0.00     0.00   0.00   0.00
    28   6     0.00   0.00   0.00    -0.00  -0.00  -0.00    -0.00   0.00  -0.00
    29   6    -0.00  -0.00  -0.00     0.00  -0.00   0.00     0.00  -0.00   0.00
    30   1    -0.00  -0.00  -0.00     0.00   0.00   0.00    -0.00  -0.00   0.00
    31   6     0.00   0.00   0.00     0.00   0.00   0.00     0.00   0.00   0.00
    32   1    -0.00   0.00  -0.00     0.00  -0.00   0.00     0.00  -0.00   0.00
    33   6     0.00   0.00   0.00    -0.00  -0.00  -0.00    -0.00  -0.00  -0.00
    34   1     0.00  -0.00   0.00    -0.03   0.00  -0.01    -0.00   0.00  -0.00
    35   1    -0.00  -0.00  -0.00    -0.00  -0.01  -0.01    -0.00  -0.00  -0.00
    36   6     0.00   0.00   0.00    -0.07  -0.03  -0.05    -0.00  -0.00  -0.00
    37   1    -0.00  -0.00   0.00     0.03   0.06  -0.09     0.00   0.00  -0.00
    38   1    -0.04  -0.00  -0.01     0.77   0.09   0.20     0.00   0.00   0.00
    39   1    -0.00  -0.01  -0.03     0.01   0.25   0.51    -0.00   0.00   0.00
    40   7     0.00  -0.00   0.00    -0.00  -0.00   0.00    -0.00  -0.00  -0.00
    41   1     0.00  -0.00   0.00    -0.00  -0.00  -0.00     0.00   0.00   0.00
    42   6    -0.00   0.00  -0.00    -0.00  -0.00  -0.00     0.00  -0.00   0.00
    43   6    -0.00  -0.00   0.00    -0.00  -0.00   0.00    -0.00   0.00  -0.00
    44   6     0.00   0.00  -0.00     0.00   0.00  -0.00    -0.00  -0.00  -0.00
    45   6    -0.00   0.00  -0.00    -0.00   0.00  -0.00    -0.00   0.00  -0.00
    46   6    -0.00  -0.00   0.00     0.00  -0.00   0.00     0.00   0.00   0.00
    47   1    -0.03  -0.00   0.00    -0.00  -0.00   0.00     0.01   0.00  -0.00
    48   6    -0.00  -0.00   0.00    -0.00  -0.00   0.00    -0.00   0.00  -0.00
    49   6     0.00  -0.00   0.00     0.00   0.00   0.00     0.00   0.00  -0.00
    50   1     0.00   0.00  -0.00     0.00   0.00  -0.00    -0.01  -0.04   0.01
    51   6    -0.00   0.00  -0.00     0.00   0.00  -0.00     0.00   0.00  -0.00
    52   1    -0.00  -0.00   0.00    -0.00  -0.00   0.00    -0.00  -0.01   0.00
    53   1     0.00   0.00   0.00     0.00   0.00  -0.00     0.00   0.00   0.00
    54   1     0.00  -0.00  -0.00     0.00  -0.00  -0.00     0.00  -0.00  -0.00
    55   6    -0.07  -0.06   0.01    -0.00  -0.00   0.00    -0.00  -0.00  -0.00
    56   1     0.14   0.43   0.32     0.01   0.02   0.02     0.00   0.00   0.00
    57   1    -0.01   0.06  -0.23    -0.00   0.00  -0.01    -0.00  -0.00   0.00
    58   1     0.74   0.21  -0.19     0.04   0.01  -0.01     0.00   0.00  -0.00
    59   6     0.00   0.00   0.00     0.00   0.00   0.00    -0.06  -0.07   0.01
    60   1    -0.00  -0.00   0.00    -0.00  -0.00   0.00     0.45   0.79  -0.20
    61   1    -0.00   0.00   0.00    -0.00   0.00   0.00     0.15  -0.06  -0.18
    62   1    -0.00  -0.00  -0.00    -0.00  -0.00  -0.00     0.13   0.06   0.21
    63   8    -0.00   0.00  -0.00     0.00   0.00  -0.00     0.00  -0.00   0.00
                    166                    167                    168
                      A                      A                      A
 Frequencies --   3154.8653              3177.6229              3180.3863
 Red. masses --      1.0974                 1.0893                 1.0858
 Frc consts  --      6.4355                 6.4807                 6.4706
 IR Inten    --      3.2814                13.8644                 0.4189
  Atom  AN      X      Y      Z        X      Y      Z        X      Y      Z
     1   6    -0.00   0.00  -0.00     0.00  -0.00   0.00     0.02  -0.04   0.00
     2   6    -0.00  -0.00  -0.00    -0.00  -0.00  -0.00     0.00   0.00   0.00
     3   6     0.00   0.00  -0.00     0.00  -0.00  -0.00     0.00   0.00   0.00
     4   6    -0.00   0.00  -0.00    -0.00   0.00  -0.00     0.00  -0.01  -0.00
     5   6    -0.00  -0.00  -0.00     0.00   0.00   0.00     0.02   0.04   0.01
     6   6    -0.00   0.00  -0.00    -0.00  -0.00  -0.00    -0.05  -0.00  -0.01
     7   1     0.00  -0.00   0.00    -0.00   0.01  -0.00    -0.26   0.44  -0.05
     8   1     0.00   0.00   0.00     0.01   0.01   0.00    -0.02  -0.05  -0.01
     9   1     0.00  -0.00   0.00     0.00  -0.00  -0.00    -0.05   0.08  -0.00
    10   1     0.00   0.00   0.00    -0.01  -0.01  -0.00    -0.21  -0.42  -0.10
    11   1     0.00   0.00   0.00     0.02   0.00   0.00     0.59   0.01   0.17
    12   6     0.00  -0.00  -0.00     0.00   0.00  -0.00     0.00  -0.00   0.00
    13   6    -0.00  -0.00   0.00     0.00   0.00  -0.00    -0.00  -0.00   0.00
    14   6     0.00  -0.00  -0.00    -0.01   0.00   0.00     0.01  -0.00  -0.01
    15   6     0.00   0.00  -0.00    -0.00   0.00   0.00     0.01  -0.00  -0.00
    16   1     0.00   0.00  -0.00    -0.00  -0.01   0.00     0.01   0.02  -0.02
    17   6    -0.00  -0.00   0.00     0.00   0.00  -0.00    -0.01  -0.01   0.01
    18   1    -0.00   0.00   0.00     0.07  -0.01  -0.04    -0.11   0.01   0.06
    19   6     0.00  -0.00   0.00     0.00  -0.00   0.00    -0.01   0.01  -0.00
    20   1    -0.00   0.00   0.00     0.03  -0.00  -0.01    -0.10   0.01   0.05
    21   1     0.00   0.00  -0.00    -0.03  -0.06   0.05     0.07   0.15  -0.12
    22   1    -0.00   0.00  -0.00    -0.02   0.04  -0.01     0.09  -0.13   0.02
    23  16    -0.00  -0.00   0.00    -0.00   0.00  -0.00     0.00  -0.00   0.00
    24   8     0.00   0.00  -0.00    -0.00  -0.00   0.00    -0.00   0.00   0.00
    25   8     0.00   0.00  -0.00     0.00   0.00   0.00    -0.00   0.00  -0.00
    26   6     0.00   0.00  -0.00     0.00  -0.00   0.00     0.00   0.00   0.00
    27   6     0.00   0.00   0.00    -0.00  -0.00  -0.00    -0.00  -0.00  -0.00
    28   6    -0.00   0.00  -0.00     0.00   0.00   0.00     0.00  -0.00   0.00
    29   6     0.00   0.00   0.00     0.00  -0.00   0.00    -0.00   0.00  -0.00
    30   1    -0.00  -0.00  -0.00     0.00   0.00   0.00     0.00   0.00   0.00
    31   6     0.00  -0.00  -0.00    -0.00  -0.00  -0.00    -0.00  -0.00  -0.00
    32   1     0.00   0.00   0.00    -0.00   0.00  -0.00    -0.00   0.00  -0.00
    33   6     0.00  -0.00  -0.00     0.00  -0.00  -0.00     0.00   0.00   0.00
    34   1    -0.00   0.00  -0.00    -0.00   0.00  -0.00     0.01  -0.00   0.01
    35   1     0.00   0.00   0.00     0.00   0.00   0.00     0.00   0.00   0.00
    36   6    -0.00  -0.00   0.00    -0.00  -0.00   0.00    -0.00  -0.00  -0.00
    37   1     0.00   0.00  -0.00     0.00   0.00  -0.00    -0.00  -0.00   0.00
    38   1     0.00   0.00   0.00     0.00   0.00   0.00     0.00   0.00   0.00
    39   1    -0.00  -0.00  -0.00    -0.00  -0.00  -0.00     0.00   0.00   0.00
    40   7     0.00   0.00  -0.00     0.00  -0.00   0.00     0.00  -0.00  -0.00
    41   1    -0.00  -0.00   0.00    -0.00  -0.00  -0.00    -0.00  -0.00  -0.00
    42   6    -0.00  -0.00   0.00    -0.00   0.00  -0.00     0.00  -0.00  -0.00
    43   6     0.00  -0.00   0.00     0.00   0.00  -0.00     0.00  -0.00   0.00
    44   6    -0.00  -0.00   0.00    -0.08  -0.02   0.01    -0.00  -0.00   0.00
    45   6    -0.00  -0.00   0.00     0.00  -0.00   0.00    -0.00   0.00  -0.00
    46   6    -0.00   0.00   0.00    -0.00   0.00  -0.00     0.00   0.00   0.00
    47   1     0.00   0.00  -0.00     0.93   0.20  -0.07     0.02   0.00  -0.00
    48   6    -0.00  -0.00   0.00     0.00   0.00  -0.00     0.00  -0.00   0.00
    49   6     0.00   0.00  -0.00     0.01   0.02  -0.01    -0.00  -0.00   0.00
    50   1    -0.00  -0.00   0.00    -0.08  -0.22   0.09     0.00   0.01  -0.00
    51   6     0.01  -0.09   0.03    -0.00   0.00   0.00     0.00  -0.00   0.00
    52   1     0.13   0.88  -0.31    -0.00  -0.00   0.00     0.00   0.00  -0.00
    53   1    -0.06  -0.00  -0.17     0.00   0.00  -0.00     0.00   0.00   0.00
    54   1    -0.13   0.15   0.15     0.00  -0.00  -0.00     0.00   0.00  -0.00
    55   6    -0.00  -0.00  -0.00    -0.00  -0.00   0.00     0.00   0.00   0.00
    56   1     0.00   0.00   0.00     0.00   0.01   0.00    -0.00  -0.00  -0.00
    57   1    -0.00   0.00  -0.00     0.00  -0.00  -0.00     0.00   0.00  -0.00
    58   1     0.00   0.00  -0.00     0.03   0.01  -0.01    -0.00  -0.00   0.00
    59   6    -0.00  -0.00   0.00     0.00   0.00  -0.00     0.00   0.00  -0.00
    60   1     0.01   0.01  -0.00    -0.01  -0.02   0.00    -0.00  -0.00   0.00
    61   1     0.01  -0.00  -0.01    -0.00   0.00   0.00    -0.00   0.00   0.00
    62   1     0.00   0.00   0.00    -0.00  -0.00  -0.00    -0.00   0.00  -0.00
    63   8     0.00   0.00  -0.00    -0.00  -0.00   0.00     0.00   0.00  -0.00
                    169                    170                    171
                      A                      A                      A
 Frequencies --   3180.7650              3183.8924              3189.3750
 Red. masses --      1.0856                 1.0900                 1.0886
 Frc consts  --      6.4712                 6.5100                 6.5240
 IR Inten    --      2.1777                12.5335                 6.6498
  Atom  AN      X      Y      Z        X      Y      Z        X      Y      Z
     1   6    -0.01   0.01  -0.00     0.00  -0.00   0.00    -0.00   0.01  -0.00
     2   6    -0.00  -0.00  -0.00     0.00   0.00  -0.00    -0.00  -0.00  -0.00
     3   6    -0.00   0.00  -0.00     0.00   0.00   0.00     0.00   0.00   0.00
     4   6     0.00   0.00   0.00    -0.00   0.00   0.00     0.00  -0.00   0.00
     5   6    -0.01  -0.01  -0.00    -0.00  -0.00  -0.00     0.00   0.01   0.00
     6   6     0.02   0.00   0.00     0.00   0.00   0.00     0.00  -0.00   0.00
     7   1     0.09  -0.16   0.02    -0.00   0.00  -0.00     0.05  -0.08   0.01
     8   1     0.01   0.02   0.00    -0.00  -0.00  -0.00     0.00   0.01   0.00
     9   1     0.00  -0.01   0.00     0.00  -0.00   0.00    -0.02   0.04  -0.00
    10   1     0.06   0.13   0.03     0.01   0.02   0.00    -0.04  -0.08  -0.02
    11   1    -0.20  -0.00  -0.06    -0.02  -0.00  -0.00    -0.02   0.00  -0.00
    12   6     0.00  -0.00   0.00     0.00   0.00  -0.00    -0.00  -0.00   0.00
    13   6    -0.00  -0.01   0.01    -0.00  -0.00   0.00     0.01   0.01  -0.01
    14   6     0.02  -0.00  -0.01     0.00   0.00  -0.00     0.03  -0.00  -0.02
    15   6     0.03  -0.00  -0.01     0.00  -0.00  -0.00    -0.05   0.00   0.03
    16   1     0.04   0.07  -0.06     0.00   0.00  -0.00    -0.07  -0.16   0.13
    17   6    -0.02  -0.04   0.03    -0.00  -0.00   0.00    -0.01  -0.03   0.02
    18   1    -0.29   0.03   0.16    -0.00   0.00   0.00    -0.38   0.03   0.21
    19   6    -0.02   0.03  -0.01    -0.00   0.00  -0.00     0.02  -0.02   0.00
    20   1    -0.32   0.03   0.17    -0.00   0.00   0.00     0.60  -0.05  -0.32
    21   1     0.21   0.45  -0.37     0.00   0.00  -0.00     0.14   0.31  -0.25
    22   1     0.27  -0.41   0.06     0.00  -0.00   0.00    -0.16   0.24  -0.03
    23  16     0.00   0.00  -0.00     0.00  -0.00   0.00    -0.00  -0.00   0.00
    24   8    -0.00  -0.00   0.00    -0.00   0.00  -0.00     0.00   0.00  -0.00
    25   8    -0.00  -0.00   0.00    -0.00   0.00  -0.00     0.00   0.00  -0.00
    26   6    -0.00  -0.00   0.00     0.00   0.00   0.00     0.00   0.00  -0.00
    27   6    -0.00   0.00  -0.00     0.01   0.01   0.01     0.00   0.00   0.00
    28   6    -0.00   0.00  -0.00    -0.00  -0.00  -0.00     0.00   0.00   0.00
    29   6     0.00  -0.00   0.00    -0.07   0.01  -0.04    -0.00   0.00  -0.00
    30   1     0.00   0.00   0.00    -0.07  -0.13  -0.08    -0.00  -0.00  -0.00
    31   6     0.00   0.00   0.00    -0.00  -0.00  -0.00    -0.00  -0.00  -0.00
    32   1     0.00  -0.00   0.00     0.01  -0.00   0.00    -0.00   0.00  -0.00
    33   6    -0.00  -0.00  -0.00     0.00   0.00   0.00    -0.00   0.00   0.00
    34   1    -0.01   0.00  -0.00     0.85  -0.08   0.48     0.00  -0.00   0.00
    35   1    -0.00  -0.00  -0.00     0.01   0.02   0.01     0.00   0.00   0.00
    36   6     0.00   0.00   0.00    -0.00  -0.00  -0.00    -0.00  -0.00  -0.00
    37   1    -0.00  -0.00   0.00     0.00   0.00  -0.00     0.00   0.00  -0.00
    38   1    -0.00  -0.00  -0.00     0.03   0.00   0.01     0.00   0.00   0.00
    39   1    -0.00   0.00  -0.00     0.00   0.00   0.01     0.00   0.00   0.00
    40   7     0.00   0.00   0.00     0.00   0.00  -0.00    -0.00   0.00  -0.00
    41   1    -0.00  -0.00  -0.00    -0.00   0.00  -0.00     0.00  -0.00   0.00
    42   6     0.00  -0.00  -0.00    -0.00  -0.00   0.00     0.00   0.00  -0.00
    43   6     0.00   0.00   0.00     0.00  -0.00  -0.00     0.00  -0.00   0.00
    44   6    -0.01  -0.00   0.00    -0.00  -0.00   0.00    -0.00  -0.00   0.00
    45   6     0.00  -0.00   0.00     0.00   0.00  -0.00    -0.00   0.00  -0.00
    46   6    -0.00   0.00  -0.00     0.00   0.00  -0.00     0.00   0.00  -0.00
    47   1     0.12   0.02  -0.01     0.00   0.00  -0.00     0.05   0.01  -0.00
    48   6     0.00   0.00  -0.00    -0.00  -0.00   0.00     0.00   0.00   0.00
    49   6     0.00  -0.00   0.00     0.00   0.00  -0.00    -0.00  -0.00   0.00
    50   1     0.00   0.00  -0.00    -0.00  -0.00   0.00     0.02   0.06  -0.02
    51   6     0.00   0.00  -0.00     0.00   0.00   0.00     0.00  -0.00  -0.00
    52   1    -0.00  -0.00   0.00     0.00  -0.00   0.00    -0.00   0.00  -0.00
    53   1    -0.00   0.00  -0.00    -0.00   0.00  -0.00    -0.00  -0.00  -0.00
    54   1    -0.00   0.00   0.00     0.00  -0.00  -0.00    -0.00   0.00   0.00
    55   6    -0.00  -0.00   0.00    -0.00  -0.00  -0.00    -0.00  -0.00  -0.00
    56   1     0.00   0.00   0.00     0.00   0.00   0.00     0.00   0.00   0.00
    57   1     0.00  -0.00   0.00    -0.00  -0.00   0.00     0.00  -0.00   0.00
    58   1     0.00   0.00  -0.00     0.00   0.00  -0.00     0.00   0.00  -0.00
    59   6     0.00   0.00  -0.00    -0.00  -0.00   0.00    -0.00  -0.00  -0.00
    60   1    -0.00  -0.00   0.00     0.00   0.00  -0.00     0.00   0.00  -0.00
    61   1    -0.00   0.00   0.00     0.00  -0.00  -0.00    -0.00   0.00   0.00
    62   1    -0.00  -0.00  -0.00    -0.00  -0.00  -0.00     0.00   0.00   0.00
    63   8    -0.00  -0.00   0.00    -0.00   0.00  -0.00    -0.00  -0.00  -0.00
                    172                    173                    174
                      A                      A                      A
 Frequencies --   3191.0546              3198.1383              3199.3556
 Red. masses --      1.0907                 1.0904                 1.0926
 Frc consts  --      6.5436                 6.5712                 6.5893
 IR Inten    --     15.0907                 2.9634                18.2042
  Atom  AN      X      Y      Z        X      Y      Z        X      Y      Z
     1   6     0.03  -0.05   0.01    -0.00   0.00  -0.00    -0.00   0.00  -0.00
     2   6     0.00   0.00   0.00     0.00   0.00   0.00     0.00  -0.00   0.00
     3   6    -0.00   0.00   0.00    -0.00  -0.00  -0.00    -0.00  -0.00  -0.00
     4   6    -0.00   0.01   0.00     0.00  -0.00  -0.00    -0.00   0.00  -0.00
     5   6    -0.03  -0.05  -0.01     0.00   0.00   0.00     0.00   0.00   0.00
     6   6     0.00   0.00   0.00     0.00  -0.00   0.00    -0.00  -0.00  -0.00
     7   1    -0.34   0.59  -0.07     0.00  -0.00   0.00     0.02  -0.04   0.00
     8   1    -0.03  -0.06  -0.01    -0.00  -0.00  -0.00     0.00   0.00   0.00
     9   1     0.06  -0.11   0.00    -0.00   0.00  -0.00     0.03  -0.05   0.00
    10   1     0.30   0.61   0.14    -0.00  -0.00  -0.00    -0.00  -0.01  -0.00
    11   1    -0.03  -0.01  -0.01    -0.00  -0.00  -0.00     0.05   0.00   0.02
    12   6    -0.00  -0.00   0.00    -0.00  -0.00   0.00    -0.00   0.00  -0.00
    13   6     0.00   0.00  -0.00     0.00   0.00  -0.00     0.01   0.01  -0.01
    14   6     0.00  -0.00  -0.00    -0.00   0.00   0.00    -0.05   0.01   0.03
    15   6    -0.01   0.00   0.00    -0.00  -0.00   0.00    -0.03   0.00   0.02
    16   1    -0.01  -0.02   0.02    -0.00  -0.00   0.00    -0.08  -0.16   0.13
    17   6    -0.00  -0.01   0.00    -0.00  -0.00   0.00    -0.01  -0.02   0.01
    18   1    -0.03   0.00   0.02     0.00  -0.00  -0.00     0.58  -0.06  -0.32
    19   6     0.00  -0.00  -0.00    -0.00   0.00  -0.00    -0.02   0.03  -0.01
    20   1     0.09  -0.01  -0.05     0.00   0.00  -0.00     0.34  -0.03  -0.18
    21   1     0.03   0.06  -0.05     0.00   0.00  -0.00     0.09   0.21  -0.16
    22   1    -0.01   0.02  -0.00     0.00  -0.00   0.00     0.25  -0.38   0.06
    23  16    -0.00  -0.00   0.00     0.00   0.00  -0.00    -0.00  -0.00   0.00
    24   8     0.00   0.00  -0.00     0.00  -0.00   0.00     0.00   0.00  -0.00
    25   8     0.00   0.00  -0.00    -0.00  -0.00   0.00     0.00   0.00  -0.00
    26   6     0.00   0.00  -0.00     0.00  -0.00   0.00     0.00   0.00   0.00
    27   6    -0.00  -0.00  -0.00    -0.00  -0.00  -0.00     0.00   0.00   0.00
    28   6     0.00  -0.00   0.00     0.01   0.00   0.01    -0.00  -0.00  -0.00
    29   6     0.00  -0.00   0.00     0.00   0.00   0.00    -0.00   0.00  -0.00
    30   1     0.00   0.01   0.00     0.01   0.02   0.01    -0.00  -0.00  -0.00
    31   6    -0.00  -0.00  -0.00    -0.03  -0.07  -0.04     0.00   0.00   0.00
    32   1    -0.00   0.00  -0.00    -0.14   0.01  -0.08     0.00  -0.00   0.00
    33   6     0.00  -0.00   0.00     0.00  -0.00   0.00    -0.00   0.00  -0.00
    34   1    -0.01   0.00  -0.01    -0.02   0.00  -0.01     0.00  -0.00   0.00
    35   1     0.00   0.00   0.00     0.38   0.76   0.49    -0.00  -0.00  -0.00
    36   6     0.00   0.00   0.00    -0.00  -0.00  -0.00    -0.00  -0.00   0.00
    37   1    -0.00  -0.00   0.00    -0.00   0.00  -0.00     0.00   0.00  -0.00
    38   1    -0.00  -0.00  -0.00     0.01   0.00   0.00     0.00  -0.00   0.00
    39   1    -0.00  -0.00  -0.00    -0.00   0.01   0.02     0.00  -0.00  -0.00
    40   7    -0.00   0.00  -0.00    -0.00  -0.00   0.00    -0.00  -0.00   0.00
    41   1     0.00  -0.00   0.00     0.00   0.00   0.00     0.00   0.00   0.00
    42   6    -0.00   0.00  -0.00     0.00   0.00  -0.00    -0.00   0.00   0.00
    43   6     0.00  -0.00   0.00    -0.00  -0.00   0.00    -0.00   0.00  -0.00
    44   6    -0.00  -0.00   0.00     0.00  -0.00  -0.00     0.01   0.00  -0.00
    45   6    -0.00   0.00  -0.00    -0.00   0.00  -0.00    -0.00  -0.00   0.00
    46   6     0.00   0.00   0.00     0.00   0.00  -0.00    -0.00  -0.00   0.00
    47   1     0.01   0.00  -0.00    -0.00  -0.00   0.00    -0.08  -0.02   0.01
    48   6    -0.00  -0.00   0.00    -0.00  -0.00   0.00    -0.00  -0.00  -0.00
    49   6    -0.00  -0.00   0.00     0.00   0.00  -0.00     0.01   0.02  -0.01
    50   1     0.00   0.00  -0.00    -0.00  -0.00   0.00    -0.07  -0.18   0.07
    51   6    -0.00  -0.00   0.00     0.00   0.00  -0.00    -0.00   0.00   0.00
    52   1     0.00   0.00  -0.00     0.00  -0.00   0.00     0.00   0.00  -0.00
    53   1     0.00   0.00  -0.00     0.00   0.00  -0.00     0.00   0.00   0.00
    54   1     0.00  -0.00  -0.00     0.00   0.00  -0.00     0.00  -0.00  -0.00
    55   6     0.00   0.00   0.00    -0.00  -0.00   0.00     0.00   0.00  -0.00
    56   1    -0.00  -0.00  -0.00     0.00   0.00   0.00    -0.00   0.00   0.00
    57   1     0.00   0.00  -0.00    -0.00   0.00  -0.01    -0.00   0.00   0.00
    58   1    -0.00  -0.00   0.00     0.00   0.00  -0.00    -0.00  -0.00   0.00
    59   6    -0.00  -0.00   0.00    -0.00  -0.00  -0.00     0.00   0.00  -0.00
    60   1     0.00   0.00   0.00     0.00   0.00  -0.00    -0.00  -0.01   0.00
    61   1     0.00   0.00  -0.00     0.00  -0.00  -0.00     0.00  -0.00  -0.00
    62   1    -0.00  -0.00  -0.00     0.00   0.00   0.00    -0.00  -0.00  -0.00
    63   8     0.00   0.00  -0.00     0.00   0.00  -0.00     0.00   0.00  -0.00
                    175                    176                    177
                      A                      A                      A
 Frequencies --   3204.7298              3207.0559              3209.7492
 Red. masses --      1.0965                 1.0942                 1.0920
 Frc consts  --      6.6348                 6.6308                 6.6286
 IR Inten    --     29.6747                 6.4727                16.4368
  Atom  AN      X      Y      Z        X      Y      Z        X      Y      Z
     1   6    -0.02   0.04  -0.00    -0.00   0.00  -0.00     0.00  -0.00   0.00
     2   6    -0.00  -0.00  -0.00    -0.00  -0.00  -0.00    -0.00  -0.00  -0.00
     3   6    -0.00  -0.00  -0.00     0.00   0.00   0.00     0.00  -0.00   0.00
     4   6    -0.00   0.01   0.00     0.00  -0.00   0.00    -0.00   0.00  -0.00
     5   6    -0.01  -0.04  -0.01    -0.00  -0.00  -0.00     0.00   0.00   0.00
     6   6    -0.06  -0.00  -0.02    -0.00   0.00  -0.00     0.00  -0.00   0.00
     7   1     0.22  -0.38   0.04     0.00  -0.01   0.00    -0.01   0.01  -0.00
     8   1     0.03   0.06   0.01     0.00   0.00   0.00     0.00   0.00   0.00
     9   1     0.08  -0.13   0.00    -0.01   0.02  -0.00     0.02  -0.04   0.00
    10   1     0.19   0.39   0.09     0.01   0.02   0.00    -0.02  -0.03  -0.01
    11   1     0.72   0.02   0.21     0.02   0.00   0.00    -0.03  -0.00  -0.01
    12   6    -0.00  -0.00  -0.00    -0.00  -0.00   0.00     0.00   0.00  -0.00
    13   6    -0.00  -0.00   0.00     0.01   0.02  -0.02    -0.01  -0.01   0.01
    14   6     0.00  -0.00  -0.00     0.02  -0.00  -0.01    -0.03   0.00   0.02
    15   6     0.00   0.00  -0.00    -0.01  -0.00   0.01     0.00   0.00  -0.00
    16   1     0.01   0.02  -0.02    -0.12  -0.26   0.21     0.08   0.17  -0.13
    17   6    -0.00  -0.00   0.00     0.01   0.03  -0.02    -0.01  -0.02   0.02
    18   1    -0.03   0.00   0.02    -0.20   0.02   0.11     0.35  -0.04  -0.19
    19   6     0.00  -0.00   0.00    -0.03   0.04  -0.01     0.01  -0.02   0.00
    20   1    -0.02   0.00   0.01     0.15  -0.01  -0.08    -0.04   0.00   0.02
    21   1     0.01   0.01  -0.01    -0.14  -0.31   0.25     0.10   0.22  -0.18
    22   1    -0.03   0.04  -0.01     0.30  -0.44   0.07    -0.14   0.20  -0.03
    23  16     0.00   0.00  -0.00    -0.00  -0.00   0.00     0.00   0.00  -0.00
    24   8    -0.00  -0.00   0.00     0.00   0.00  -0.00    -0.00  -0.00   0.00
    25   8    -0.00  -0.00   0.00     0.00   0.00  -0.00     0.00  -0.00   0.00
    26   6    -0.00  -0.00   0.00     0.00   0.00  -0.00    -0.00  -0.00   0.00
    27   6     0.00   0.00   0.00    -0.00  -0.00  -0.00     0.00   0.00   0.00
    28   6    -0.00   0.00  -0.00     0.00  -0.00   0.00     0.00  -0.00   0.00
    29   6    -0.00   0.00  -0.00    -0.00   0.00  -0.00    -0.00   0.00  -0.00
    30   1    -0.00  -0.00  -0.00     0.00   0.00   0.00    -0.00  -0.00  -0.00
    31   6    -0.00  -0.00  -0.00    -0.00   0.00   0.00    -0.00  -0.00  -0.00
    32   1     0.00  -0.00   0.00    -0.00   0.00  -0.00    -0.00   0.00  -0.00
    33   6    -0.00   0.00  -0.00    -0.00  -0.00  -0.00    -0.00   0.00  -0.00
    34   1     0.00  -0.00   0.00     0.00  -0.00   0.00     0.00  -0.00   0.00
    35   1     0.00   0.00   0.00    -0.00  -0.00  -0.00     0.00   0.00   0.00
    36   6    -0.00  -0.00  -0.00    -0.00  -0.00  -0.00    -0.00  -0.00  -0.00
    37   1    -0.00  -0.00   0.00     0.00   0.00  -0.00    -0.00  -0.00   0.00
    38   1     0.00   0.00   0.00     0.00   0.00   0.00     0.00   0.00   0.00
    39   1     0.00   0.00   0.00    -0.00   0.00   0.00     0.00   0.00   0.00
    40   7     0.00   0.00   0.00    -0.00   0.00  -0.00     0.00  -0.00   0.00
    41   1    -0.00  -0.00  -0.00     0.00  -0.00   0.00    -0.00   0.00  -0.00
    42   6     0.00   0.00   0.00     0.00   0.00  -0.00    -0.00  -0.00  -0.00
    43   6     0.00  -0.00   0.00     0.00  -0.00   0.00     0.00  -0.00   0.00
    44   6    -0.00  -0.00   0.00    -0.01  -0.00   0.00    -0.02  -0.00   0.00
    45   6     0.00   0.00  -0.00     0.00   0.00  -0.00     0.00   0.00  -0.00
    46   6    -0.00   0.00  -0.00     0.00   0.00  -0.00     0.00   0.00  -0.00
    47   1     0.01   0.00  -0.00     0.14   0.03  -0.01     0.18   0.03  -0.01
    48   6     0.00   0.00  -0.00     0.00   0.00   0.00     0.00   0.00   0.00
    49   6    -0.00  -0.00   0.00    -0.02  -0.04   0.02    -0.02  -0.06   0.02
    50   1     0.01   0.03  -0.01     0.18   0.48  -0.19     0.25   0.68  -0.26
    51   6     0.00   0.00  -0.00     0.00  -0.00  -0.00     0.00  -0.00  -0.00
    52   1    -0.00  -0.00   0.00    -0.00   0.00  -0.00    -0.00   0.00  -0.00
    53   1    -0.00   0.00  -0.00    -0.00  -0.00   0.00    -0.00  -0.00  -0.00
    54   1    -0.00   0.00   0.00    -0.00   0.00   0.00    -0.00   0.00   0.00
    55   6    -0.00  -0.00  -0.00    -0.00  -0.00   0.00    -0.00  -0.00   0.00
    56   1     0.00   0.00   0.00     0.00  -0.00   0.00     0.00  -0.00   0.00
    57   1     0.00  -0.00   0.00     0.00  -0.00   0.00     0.00  -0.00   0.00
    58   1     0.00   0.00  -0.00     0.00   0.00  -0.00     0.00   0.00  -0.00
    59   6    -0.00  -0.00   0.00    -0.00  -0.00   0.00    -0.00  -0.00   0.00
    60   1     0.00   0.00  -0.00     0.01   0.02  -0.00     0.01   0.03  -0.01
    61   1     0.00   0.00  -0.00     0.00   0.00  -0.00     0.00  -0.00  -0.00
    62   1    -0.00  -0.00  -0.00     0.00   0.00   0.00     0.00   0.00   0.00
    63   8    -0.00  -0.00   0.00    -0.00   0.00  -0.00    -0.00  -0.00   0.00
                    178                    179                    180
                      A                      A                      A
 Frequencies --   3215.3881              3227.2122              3231.5565
 Red. masses --      1.0953                 1.0930                 1.0920
 Frc consts  --      6.6720                 6.7071                 6.7191
 IR Inten    --     10.9618                 0.7603                 7.5910
  Atom  AN      X      Y      Z        X      Y      Z        X      Y      Z
     1   6    -0.00   0.00  -0.00    -0.00   0.00   0.00    -0.00   0.00  -0.00
     2   6     0.00   0.00   0.00    -0.00  -0.00  -0.00    -0.00  -0.00  -0.00
     3   6    -0.00   0.00   0.00    -0.00   0.00   0.00     0.00   0.00   0.00
     4   6     0.00  -0.00   0.00     0.00  -0.00  -0.00     0.04  -0.07   0.00
     5   6    -0.00  -0.00  -0.00     0.00  -0.00   0.00    -0.01  -0.02  -0.00
     6   6    -0.00   0.00  -0.00     0.00   0.00   0.00    -0.01   0.00  -0.00
     7   1     0.00  -0.00   0.00     0.00  -0.00   0.00     0.01  -0.02   0.00
     8   1    -0.00  -0.00  -0.00     0.01   0.01   0.00     0.01   0.01   0.00
     9   1    -0.01   0.01  -0.00    -0.00   0.00  -0.00    -0.50   0.83  -0.04
    10   1     0.00   0.00   0.00    -0.00  -0.00  -0.00     0.09   0.18   0.04
    11   1     0.00   0.00   0.00    -0.00  -0.00  -0.00     0.05  -0.00   0.01
    12   6     0.00  -0.00  -0.00     0.00   0.00  -0.00     0.00   0.00  -0.00
    13   6    -0.02  -0.05   0.04     0.00   0.00  -0.00    -0.00   0.00   0.00
    14   6     0.01  -0.00  -0.00    -0.00   0.00   0.00    -0.01   0.00   0.00
    15   6    -0.03   0.00   0.02     0.00  -0.00  -0.00     0.00  -0.00  -0.00
    16   1     0.28   0.62  -0.50    -0.00  -0.00   0.00     0.00   0.00  -0.00
    17   6     0.01   0.01  -0.01    -0.00  -0.00   0.00    -0.00  -0.00   0.00
    18   1    -0.08   0.01   0.04     0.00  -0.00  -0.00     0.08  -0.01  -0.04
    19   6    -0.01   0.02  -0.00     0.00  -0.00   0.00     0.00  -0.00  -0.00
    20   1     0.37  -0.03  -0.20    -0.00   0.00   0.00    -0.00   0.00   0.00
    21   1    -0.05  -0.11   0.09     0.00   0.00  -0.00     0.01   0.02  -0.01
    22   1     0.15  -0.22   0.03    -0.00   0.00  -0.00    -0.00   0.00  -0.00
    23  16     0.00   0.00  -0.00    -0.00  -0.00  -0.00     0.00  -0.00  -0.00
    24   8    -0.00  -0.00   0.00    -0.00   0.00   0.00    -0.00   0.00   0.00
    25   8    -0.00  -0.00   0.00     0.00  -0.00   0.00     0.00   0.00   0.00
    26   6    -0.00  -0.00   0.00     0.00  -0.00   0.00    -0.00   0.00   0.00
    27   6    -0.00  -0.00  -0.00    -0.03  -0.07  -0.04     0.00   0.00   0.00
    28   6    -0.00   0.00  -0.00    -0.00   0.00   0.00    -0.00   0.00  -0.00
    29   6     0.00   0.00   0.00    -0.01   0.00  -0.01    -0.00  -0.00  -0.00
    30   1     0.00   0.00   0.00     0.38   0.79   0.44    -0.00  -0.00  -0.00
    31   6    -0.00  -0.00  -0.00     0.00   0.00   0.00     0.00  -0.00  -0.00
    32   1     0.00  -0.00   0.00     0.00  -0.00   0.00     0.00  -0.00   0.00
    33   6     0.00  -0.00   0.00     0.00   0.00   0.00    -0.00   0.00  -0.00
    34   1    -0.00   0.00  -0.00     0.14  -0.02   0.08     0.00  -0.00   0.00
    35   1     0.00   0.00   0.00    -0.01  -0.02  -0.01     0.00   0.00   0.00
    36   6     0.00  -0.00   0.00    -0.00  -0.00  -0.00    -0.00   0.00  -0.00
    37   1     0.00   0.00  -0.00     0.00  -0.00   0.00    -0.00  -0.00   0.00
    38   1    -0.00  -0.00  -0.00     0.00  -0.00   0.00     0.00   0.00   0.00
    39   1    -0.00   0.00   0.00     0.00  -0.00  -0.00     0.00   0.00   0.00
    40   7     0.00  -0.00  -0.00     0.00   0.00  -0.00    -0.00  -0.00  -0.00
    41   1    -0.00  -0.00  -0.00     0.00   0.00  -0.00     0.00  -0.00   0.00
    42   6    -0.00  -0.00   0.00    -0.00  -0.00  -0.00     0.00  -0.00   0.00
    43   6    -0.00  -0.00  -0.00     0.00  -0.00  -0.00     0.00   0.00   0.00
    44   6     0.00   0.00  -0.00    -0.00  -0.00  -0.00    -0.00   0.00  -0.00
    45   6    -0.00   0.00  -0.00    -0.00   0.00  -0.00     0.00  -0.00   0.00
    46   6     0.00  -0.00  -0.00    -0.00   0.00  -0.00    -0.00   0.00  -0.00
    47   1    -0.01  -0.00   0.00     0.00   0.00  -0.00     0.00   0.00   0.00
    48   6    -0.00  -0.00   0.00     0.00  -0.00   0.00     0.00   0.00  -0.00
    49   6     0.00   0.00  -0.00     0.00   0.00  -0.00    -0.00  -0.00   0.00
    50   1    -0.01  -0.02   0.01    -0.00  -0.00   0.00     0.00   0.01  -0.00
    51   6    -0.00   0.00   0.00    -0.00  -0.00   0.00     0.00   0.00   0.00
    52   1    -0.00  -0.00   0.00     0.00   0.00  -0.00     0.00  -0.00   0.00
    53   1     0.00   0.00   0.00    -0.00   0.00  -0.00    -0.00  -0.00  -0.00
    54   1     0.00  -0.00  -0.00     0.00  -0.00  -0.00    -0.00   0.00   0.00
    55   6     0.00   0.00  -0.00    -0.00   0.00  -0.00    -0.00  -0.00   0.00
    56   1     0.00   0.00   0.00     0.00   0.00   0.00    -0.00  -0.00  -0.00
    57   1    -0.00   0.00   0.00     0.00  -0.00   0.00     0.00   0.00  -0.00
    58   1    -0.00  -0.00   0.00     0.00   0.00  -0.00     0.00   0.00  -0.00
    59   6    -0.00  -0.00   0.00    -0.00  -0.00   0.00    -0.00  -0.00   0.00
    60   1     0.00   0.00  -0.00     0.00   0.00  -0.00     0.00   0.00  -0.00
    61   1     0.00  -0.00  -0.00     0.00  -0.00  -0.00    -0.00   0.00   0.00
    62   1     0.00   0.00   0.00    -0.00  -0.00  -0.00     0.00   0.00   0.00
    63   8     0.00   0.00  -0.00     0.00   0.00  -0.00    -0.00  -0.00   0.00
                    181                    182                    183
                      A                      A                      A
 Frequencies --   3236.9086              3258.9326              3491.1162
 Red. masses --      1.0933                 1.0906                 1.0747
 Frc consts  --      6.7490                 6.8247                 7.7170
 IR Inten    --      2.1934                 2.2143                50.2674
  Atom  AN      X      Y      Z        X      Y      Z        X      Y      Z
     1   6     0.00  -0.00   0.00     0.01  -0.01   0.00    -0.00   0.00   0.00
     2   6    -0.00  -0.00  -0.00    -0.04  -0.08  -0.02     0.00  -0.00  -0.00
     3   6     0.00   0.00  -0.00    -0.00   0.00  -0.00     0.00   0.00  -0.00
     4   6    -0.00   0.00  -0.00     0.00   0.00   0.00    -0.00   0.00  -0.00
     5   6     0.00   0.00   0.00     0.00   0.00   0.00     0.00  -0.00   0.00
     6   6     0.00   0.00   0.00     0.00   0.00   0.00    -0.00   0.00  -0.00
     7   1    -0.00   0.00  -0.00    -0.06   0.09  -0.01    -0.00   0.00  -0.00
     8   1     0.00   0.00   0.00     0.44   0.87   0.18     0.00   0.00  -0.00
     9   1     0.00  -0.00   0.00     0.00  -0.00  -0.00     0.00  -0.00  -0.00
    10   1    -0.00  -0.00  -0.00    -0.01  -0.01  -0.00    -0.00   0.00  -0.00
    11   1    -0.00  -0.00  -0.00    -0.01  -0.00  -0.00     0.00   0.00  -0.00
    12   6    -0.00   0.00  -0.00     0.00   0.00  -0.00    -0.00   0.00  -0.00
    13   6     0.00   0.00  -0.00    -0.00  -0.00   0.00    -0.00  -0.00   0.00
    14   6     0.00  -0.00  -0.00    -0.00   0.00  -0.00    -0.00  -0.00   0.00
    15   6     0.00  -0.00  -0.00    -0.00   0.00   0.00     0.00   0.00  -0.00
    16   1    -0.00  -0.00   0.00     0.00   0.00  -0.00     0.00   0.00  -0.00
    17   6     0.00   0.00  -0.00     0.00   0.00  -0.00    -0.00   0.00  -0.00
    18   1    -0.00   0.00   0.00     0.00   0.00  -0.00     0.00   0.00  -0.00
    19   6    -0.00  -0.00   0.00    -0.00   0.00  -0.00     0.00  -0.00   0.00
    20   1    -0.00   0.00   0.00     0.00  -0.00  -0.00    -0.00   0.00   0.00
    21   1    -0.00  -0.00   0.00    -0.00  -0.00   0.00    -0.00   0.00  -0.00
    22   1     0.00  -0.00   0.00     0.00  -0.00   0.00    -0.00   0.00  -0.00
    23  16    -0.00  -0.00  -0.00     0.00  -0.00  -0.00    -0.00   0.00  -0.00
    24   8     0.00   0.00   0.00    -0.00   0.00  -0.00     0.00  -0.00   0.00
    25   8     0.00  -0.00   0.00    -0.00   0.00  -0.00     0.00   0.00   0.00
    26   6     0.00   0.00   0.00    -0.00  -0.00   0.00    -0.00  -0.00   0.00
    27   6     0.00  -0.00   0.00     0.00   0.00   0.00     0.00  -0.00  -0.00
    28   6    -0.07   0.01  -0.04     0.00   0.00   0.00    -0.00  -0.00  -0.00
    29   6     0.00   0.00   0.00     0.00   0.00   0.00    -0.00  -0.00  -0.00
    30   1     0.00   0.00   0.00    -0.00  -0.01  -0.01    -0.00   0.00   0.00
    31   6    -0.00  -0.01  -0.01     0.00  -0.00  -0.00     0.00   0.00   0.00
    32   1     0.84  -0.08   0.50    -0.00   0.00  -0.00     0.00  -0.00   0.00
    33   6     0.00  -0.00   0.00    -0.00  -0.00  -0.00     0.00   0.00  -0.00
    34   1    -0.01   0.00  -0.01    -0.00   0.00  -0.00     0.00  -0.00   0.00
    35   1     0.06   0.12   0.08     0.00   0.00   0.00    -0.00  -0.00  -0.00
    36   6    -0.00  -0.00  -0.00     0.00   0.00  -0.00    -0.00   0.00   0.00
    37   1    -0.00   0.00  -0.00    -0.00  -0.00   0.00     0.00  -0.00   0.00
    38   1    -0.00   0.00  -0.00     0.00   0.00  -0.00     0.00  -0.00   0.00
    39   1    -0.00   0.00   0.00    -0.00  -0.00  -0.00     0.00  -0.00  -0.00
    40   7     0.00   0.00   0.00    -0.00   0.00  -0.00    -0.06  -0.02  -0.03
    41   1    -0.00  -0.00  -0.00    -0.00   0.00  -0.00     0.87   0.20   0.44
    42   6    -0.00  -0.00   0.00    -0.00  -0.00   0.00    -0.00  -0.00   0.00
    43   6     0.00   0.00  -0.00    -0.00  -0.00   0.00     0.00   0.00  -0.00
    44   6    -0.00   0.00  -0.00     0.00   0.00  -0.00    -0.00  -0.00  -0.00
    45   6     0.00  -0.00   0.00    -0.00   0.00  -0.00    -0.00  -0.00   0.00
    46   6    -0.00  -0.00   0.00    -0.00  -0.00  -0.00    -0.00   0.00   0.00
    47   1     0.00   0.00   0.00    -0.02  -0.00   0.00     0.00   0.00  -0.00
    48   6     0.00   0.00  -0.00     0.00  -0.00   0.00     0.00  -0.00   0.00
    49   6    -0.00  -0.00   0.00    -0.00   0.00   0.00    -0.00  -0.00  -0.00
    50   1     0.00   0.00  -0.00    -0.00  -0.00   0.00    -0.00  -0.00   0.00
    51   6     0.00   0.00  -0.00     0.00   0.00   0.00    -0.00  -0.00  -0.00
    52   1    -0.00  -0.00  -0.00     0.00  -0.00   0.00     0.00   0.00  -0.00
    53   1     0.00  -0.00   0.00     0.00   0.00  -0.00     0.00  -0.00   0.00
    54   1    -0.00   0.00   0.00     0.00   0.00  -0.00    -0.00  -0.00  -0.00
    55   6    -0.00  -0.00   0.00     0.00   0.00  -0.00    -0.00  -0.00   0.00
    56   1     0.00  -0.00   0.00     0.00   0.00   0.00     0.00  -0.00  -0.00
    57   1    -0.00   0.00  -0.00     0.00  -0.00   0.01    -0.00   0.00  -0.00
    58   1     0.00   0.00  -0.00    -0.00  -0.00   0.00    -0.00   0.00  -0.00
    59   6     0.00   0.00  -0.00    -0.00  -0.00   0.00     0.00   0.00  -0.00
    60   1    -0.00  -0.00   0.00     0.00   0.00  -0.00    -0.00  -0.00   0.00
    61   1    -0.00   0.00   0.00    -0.00   0.00  -0.00    -0.00   0.00   0.00
    62   1    -0.00  -0.00  -0.00     0.00   0.00   0.00     0.00  -0.00   0.00
    63   8    -0.00  -0.00  -0.00    -0.00  -0.00   0.00    -0.00   0.00  -0.00

 -------------------
 - Thermochemistry -
 -------------------
 Temperature   298.150 Kelvin.  Pressure   1.00000 Atm.
 Atom     1 has atomic number  6 and mass  12.00000
 Atom     2 has atomic number  6 and mass  12.00000
 Atom     3 has atomic number  6 and mass  12.00000
 Atom     4 has atomic number  6 and mass  12.00000
 Atom     5 has atomic number  6 and mass  12.00000
 Atom     6 has atomic number  6 and mass  12.00000
 Atom     7 has atomic number  1 and mass   1.00783
 Atom     8 has atomic number  1 and mass   1.00783
 Atom     9 has atomic number  1 and mass   1.00783
 Atom    10 has atomic number  1 and mass   1.00783
 Atom    11 has atomic number  1 and mass   1.00783
 Atom    12 has atomic number  6 and mass  12.00000
 Atom    13 has atomic number  6 and mass  12.00000
 Atom    14 has atomic number  6 and mass  12.00000
 Atom    15 has atomic number  6 and mass  12.00000
 Atom    16 has atomic number  1 and mass   1.00783
 Atom    17 has atomic number  6 and mass  12.00000
 Atom    18 has atomic number  1 and mass   1.00783
 Atom    19 has atomic number  6 and mass  12.00000
 Atom    20 has atomic number  1 and mass   1.00783
 Atom    21 has atomic number  1 and mass   1.00783
 Atom    22 has atomic number  1 and mass   1.00783
 Atom    23 has atomic number 16 and mass  31.97207
 Atom    24 has atomic number  8 and mass  15.99491
 Atom    25 has atomic number  8 and mass  15.99491
 Atom    26 has atomic number  6 and mass  12.00000
 Atom    27 has atomic number  6 and mass  12.00000
 Atom    28 has atomic number  6 and mass  12.00000
 Atom    29 has atomic number  6 and mass  12.00000
 Atom    30 has atomic number  1 and mass   1.00783
 Atom    31 has atomic number  6 and mass  12.00000
 Atom    32 has atomic number  1 and mass   1.00783
 Atom    33 has atomic number  6 and mass  12.00000
 Atom    34 has atomic number  1 and mass   1.00783
 Atom    35 has atomic number  1 and mass   1.00783
 Atom    36 has atomic number  6 and mass  12.00000
 Atom    37 has atomic number  1 and mass   1.00783
 Atom    38 has atomic number  1 and mass   1.00783
 Atom    39 has atomic number  1 and mass   1.00783
 Atom    40 has atomic number  7 and mass  14.00307
 Atom    41 has atomic number  1 and mass   1.00783
 Atom    42 has atomic number  6 and mass  12.00000
 Atom    43 has atomic number  6 and mass  12.00000
 Atom    44 has atomic number  6 and mass  12.00000
 Atom    45 has atomic number  6 and mass  12.00000
 Atom    46 has atomic number  6 and mass  12.00000
 Atom    47 has atomic number  1 and mass   1.00783
 Atom    48 has atomic number  6 and mass  12.00000
 Atom    49 has atomic number  6 and mass  12.00000
 Atom    50 has atomic number  1 and mass   1.00783
 Atom    51 has atomic number  6 and mass  12.00000
 Atom    52 has atomic number  1 and mass   1.00783
 Atom    53 has atomic number  1 and mass   1.00783
 Atom    54 has atomic number  1 and mass   1.00783
 Atom    55 has atomic number  6 and mass  12.00000
 Atom    56 has atomic number  1 and mass   1.00783
 Atom    57 has atomic number  1 and mass   1.00783
 Atom    58 has atomic number  1 and mass   1.00783
 Atom    59 has atomic number  6 and mass  12.00000
 Atom    60 has atomic number  1 and mass   1.00783
 Atom    61 has atomic number  1 and mass   1.00783
 Atom    62 has atomic number  1 and mass   1.00783
 Atom    63 has atomic number  8 and mass  15.99491
 Molecular mass:   471.18682 amu.
 Principal axes and moments of inertia in atomic units:
                           1         2         3
     Eigenvalues --  ******************************
           X           -0.32117   0.70460  -0.63276
           Y            0.89058   0.45194   0.05123
           Z           -0.32207   0.54707   0.77265
 This molecule is an asymmetric top.
 Rotational symmetry number  1.
 Warning -- assumption of classical behavior for rotation
           may cause significant error
 Rotational temperatures (Kelvin)      0.00852     0.00538     0.00455
 Rotational constants (GHZ):           0.17752     0.11206     0.09478
    1 imaginary frequencies ignored.
 Zero-point vibrational energy    1345241.4 (Joules/Mol)
                                  321.52042 (Kcal/Mol)
 Warning -- explicit consideration of  51 degrees of freedom as
           vibrations may cause significant error
 Vibrational temperatures:     23.25    47.14    51.59    58.01    77.63
          (Kelvin)             84.69   103.60   112.56   117.88   126.03
                              146.08   154.56   157.86   171.19   178.54
                              197.76   212.49   227.82   252.44   260.99
                              272.69   310.86   357.46   379.60   395.47
                              404.88   421.36   434.30   443.98   464.67
                              471.86   484.57   494.57   534.09   563.62
                              601.17   602.29   611.86   614.10   638.48
                              643.91   692.01   708.32   714.81   722.59
                              755.88   780.89   803.00   821.33   850.97
                              891.45   906.11   910.35   919.48   929.23
                              930.84   963.83   973.21  1023.30  1026.08
                             1041.65  1066.92  1068.89  1122.35  1132.93
                             1134.28  1166.19  1190.27  1196.76  1231.14
                             1244.71  1257.65  1280.43  1309.25  1346.42
                             1356.77  1367.33  1374.24  1392.27  1396.06
                             1415.00  1423.92  1436.75  1449.40  1455.27
                             1457.79  1461.14  1466.73  1472.71  1488.81
                             1495.07  1517.78  1522.67  1528.46  1530.70
                             1535.15  1540.78  1568.32  1615.24  1619.44
                             1620.90  1642.28  1653.66  1666.42  1672.20
                             1723.66  1725.33  1758.12  1762.50  1764.68
                             1775.72  1780.05  1813.70  1837.46  1863.15
                             1895.52  1903.97  1926.67  1932.64  1948.42
                             1954.63  1973.53  1981.58  2004.17  2033.72
                             2050.64  2054.55  2060.32  2078.12  2088.25
                             2124.73  2131.42  2138.26  2149.53  2149.62
                             2155.31  2157.54  2160.56  2168.25  2178.95
                             2185.75  2208.07  2211.89  2212.94  2291.06
                             2337.62  2342.58  2344.15  2369.88  2374.23
                             2379.68  2381.26  2404.56  4355.11  4373.72
                             4375.62  4376.84  4426.93  4453.00  4462.34
                             4464.88  4498.62  4500.73  4529.26  4539.15
                             4571.89  4575.87  4576.41  4580.91  4588.80
                             4591.22  4601.41  4603.16  4610.89  4614.24
                             4618.11  4626.23  4643.24  4649.49  4657.19
                             4688.88  5022.94
 
 Zero-point correction=                           0.512375 (Hartree/Particle)
 Thermal correction to Energy=                    0.543792
 Thermal correction to Enthalpy=                  0.544737
 Thermal correction to Gibbs Free Energy=         0.449629
 Sum of electronic and zero-point Energies=          -1800.681799
 Sum of electronic and thermal Energies=             -1800.650382
 Sum of electronic and thermal Enthalpies=           -1800.649438
 Sum of electronic and thermal Free Energies=        -1800.744545
 
                     E (Thermal)             CV                S
                      KCal/Mol        Cal/Mol-Kelvin    Cal/Mol-Kelvin
 Total                  341.235            122.390            200.171
 Electronic               0.000              0.000              0.000
 Translational            0.889              2.981             44.339
 Rotational               0.889              2.981             36.387
 Vibrational            339.457            116.429            119.446
 Vibration     1          0.593              1.986              7.057
 Vibration     2          0.594              1.983              5.655
 Vibration     3          0.594              1.982              5.476
 Vibration     4          0.594              1.981              5.243
 Vibration     5          0.596              1.976              4.667
 Vibration     6          0.596              1.974              4.495
 Vibration     7          0.598              1.967              4.098
 Vibration     8          0.600              1.964              3.935
 Vibration     9          0.600              1.962              3.844
 Vibration    10          0.601              1.958              3.713
 Vibration    11          0.604              1.948              3.425
 Vibration    12          0.606              1.943              3.315
 Vibration    13          0.606              1.941              3.274
 Vibration    14          0.609              1.933              3.117
 Vibration    15          0.610              1.929              3.036
 Vibration    16          0.614              1.916              2.839
 Vibration    17          0.617              1.905              2.702
 Vibration    18          0.621              1.893              2.569
 Vibration    19          0.627              1.873              2.376
 Vibration    20          0.630              1.865              2.314
 Vibration    21          0.633              1.854              2.232
 Vibration    22          0.645              1.817              1.992
 Vibration    23          0.662              1.765              1.742
 Vibration    24          0.670              1.739              1.636
 Vibration    25          0.677              1.720              1.565
 Vibration    26          0.681              1.708              1.525
 Vibration    27          0.688              1.687              1.457
 Vibration    28          0.694              1.670              1.407
 Vibration    29          0.698              1.657              1.370
 Vibration    30          0.708              1.629              1.295
 Vibration    31          0.711              1.620              1.270
 Vibration    32          0.718              1.602              1.227
 Vibration    33          0.722              1.588              1.195
 Vibration    34          0.743              1.531              1.075
 Vibration    35          0.759              1.488              0.994
 Vibration    36          0.781              1.431              0.899
 Vibration    37          0.781              1.430              0.897
 Vibration    38          0.787              1.415              0.874
 Vibration    39          0.788              1.412              0.869
 Vibration    40          0.803              1.375              0.815
 Vibration    41          0.807              1.366              0.803
 Vibration    42          0.837              1.292              0.707
 Vibration    43          0.848              1.267              0.678
 Vibration    44          0.852              1.257              0.666
 Vibration    45          0.858              1.245              0.653
 Vibration    46          0.880              1.194              0.598
 Vibration    47          0.898              1.156              0.559
 Vibration    48          0.914              1.122              0.528
 Vibration    49          0.927              1.094              0.503
 Vibration    50          0.949              1.050              0.465
 Vibration    51          0.980              0.991              0.417
                       Q            Log10(Q)             Ln(Q)
 Total Bot       0.153226-206       -206.814667       -476.208370
 Total V=0       0.726859D+29         28.861450         66.455944
 Vib (Bot)       0.190694-222       -222.719662       -512.830973
 Vib (Bot)    1  0.128193D+02          1.107864          2.550951
 Vib (Bot)    2  0.631840D+01          0.800607          1.843466
 Vib (Bot)    3  0.577196D+01          0.761323          1.753011
 Vib (Bot)    4  0.513146D+01          0.710241          1.635391
 Vib (Bot)    5  0.382998D+01          0.583197          1.342860
 Vib (Bot)    6  0.350852D+01          0.545123          1.255193
 Vib (Bot)    7  0.286359D+01          0.456911          1.052077
 Vib (Bot)    8  0.263317D+01          0.420479          0.968189
 Vib (Bot)    9  0.251290D+01          0.400175          0.921437
 Vib (Bot)   10  0.234819D+01          0.370734          0.853647
 Vib (Bot)   11  0.202073D+01          0.305508          0.703457
 Vib (Bot)   12  0.190756D+01          0.280479          0.645826
 Vib (Bot)   13  0.186684D+01          0.271108          0.624249
 Vib (Bot)   14  0.171790D+01          0.234998          0.541103
 Vib (Bot)   15  0.164521D+01          0.216220          0.497866
 Vib (Bot)   16  0.148038D+01          0.170372          0.392296
 Vib (Bot)   17  0.137385D+01          0.137940          0.317618
 Vib (Bot)   18  0.127738D+01          0.106321          0.244813
 Vib (Bot)   19  0.114653D+01          0.059386          0.136742
 Vib (Bot)   20  0.110669D+01          0.044025          0.101370
 Vib (Bot)   21  0.105617D+01          0.023732          0.054645
 Vib (Bot)   22  0.917008D+00         -0.037627         -0.086639
 Vib (Bot)   23  0.786138D+00         -0.104501         -0.240623
 Vib (Bot)   24  0.734778D+00         -0.133844         -0.308186
 Vib (Bot)   25  0.701352D+00         -0.154064         -0.354746
 Vib (Bot)   26  0.682718D+00         -0.165759         -0.381673
 Vib (Bot)   27  0.651970D+00         -0.185772         -0.427756
 Vib (Bot)   28  0.629367D+00         -0.201096         -0.463041
 Vib (Bot)   29  0.613283D+00         -0.212339         -0.488928
 Vib (Bot)   30  0.581027D+00         -0.235804         -0.542959
 Vib (Bot)   31  0.570441D+00         -0.243789         -0.561346
 Vib (Bot)   32  0.552446D+00         -0.257710         -0.593400
 Vib (Bot)   33  0.538907D+00         -0.268487         -0.618213
 Vib (Bot)   34  0.490045D+00         -0.309764         -0.713259
 Vib (Bot)   35  0.457728D+00         -0.339393         -0.781481
 Vib (Bot)   36  0.420935D+00         -0.375785         -0.865278
 Vib (Bot)   37  0.419901D+00         -0.376853         -0.867736
 Vib (Bot)   38  0.411231D+00         -0.385914         -0.888599
 Vib (Bot)   39  0.409236D+00         -0.388026         -0.893462
 Vib (Bot)   40  0.388382D+00         -0.410740         -0.945765
 Vib (Bot)   41  0.383937D+00         -0.415740         -0.957276
 Vib (Bot)   42  0.347434D+00         -0.459128         -1.057182
 Vib (Bot)   43  0.336116D+00         -0.473510         -1.090298
 Vib (Bot)   44  0.331744D+00         -0.479197         -1.103391
 Vib (Bot)   45  0.326604D+00         -0.485979         -1.119008
 Vib (Bot)   46  0.305731D+00         -0.514660         -1.185049
 Vib (Bot)   47  0.291157D+00         -0.535873         -1.233894
 Vib (Bot)   48  0.278990D+00         -0.554411         -1.276578
 Vib (Bot)   49  0.269377D+00         -0.569640         -1.311644
 Vib (Bot)   50  0.254679D+00         -0.594007         -1.367751
 Vib (Bot)   51  0.236131D+00         -0.626847         -1.443368
 Vib (V=0)       0.904598D+13         12.956455         29.833341
 Vib (V=0)    1  0.133290D+02          1.124799          2.589945
 Vib (V=0)    2  0.683815D+01          0.834939          1.922517
 Vib (V=0)    3  0.629357D+01          0.798897          1.839529
 Vib (V=0)    4  0.565577D+01          0.752491          1.732676
 Vib (V=0)    5  0.436248D+01          0.639733          1.473041
 Vib (V=0)    6  0.404396D+01          0.606807          1.397226
 Vib (V=0)    7  0.340692D+01          0.532361          1.225807
 Vib (V=0)    8  0.318022D+01          0.502457          1.156951
 Vib (V=0)    9  0.306216D+01          0.486028          1.119120
 Vib (V=0)   10  0.290084D+01          0.462523          1.064999
 Vib (V=0)   11  0.258167D+01          0.411900          0.948435
 Vib (V=0)   12  0.247200D+01          0.393049          0.905028
 Vib (V=0)   13  0.243264D+01          0.386078          0.888978
 Vib (V=0)   14  0.228918D+01          0.359681          0.828196
 Vib (V=0)   15  0.221951D+01          0.346257          0.797285
 Vib (V=0)   16  0.206253D+01          0.314401          0.723935
 Vib (V=0)   17  0.196201D+01          0.292701          0.673969
 Vib (V=0)   18  0.187175D+01          0.272249          0.626875
 Vib (V=0)   19  0.175081D+01          0.243240          0.560081
 Vib (V=0)   20  0.171439D+01          0.234111          0.539060
 Vib (V=0)   21  0.166854D+01          0.222337          0.511949
 Vib (V=0)   22  0.154446D+01          0.188778          0.434677
 Vib (V=0)   23  0.143167D+01          0.155843          0.358843
 Vib (V=0)   24  0.138876D+01          0.142628          0.328413
 Vib (V=0)   25  0.136133D+01          0.133964          0.308464
 Vib (V=0)   26  0.134623D+01          0.129119          0.297308
 Vib (V=0)   27  0.132162D+01          0.121108          0.278861
 Vib (V=0)   28  0.130381D+01          0.115213          0.265287
 Vib (V=0)   29  0.129128D+01          0.111019          0.255630
 Vib (V=0)   30  0.126655D+01          0.102621          0.236293
 Vib (V=0)   31  0.125855D+01          0.099872          0.229963
 Vib (V=0)   32  0.124511D+01          0.095209          0.219228
 Vib (V=0)   33  0.123513D+01          0.091714          0.211179
 Vib (V=0)   34  0.120010D+01          0.079218          0.182407
 Vib (V=0)   35  0.117788D+01          0.071099          0.163712
 Vib (V=0)   36  0.115359D+01          0.062053          0.142883
 Vib (V=0)   37  0.115293D+01          0.061803          0.142306
 Vib (V=0)   38  0.114739D+01          0.059710          0.137488
 Vib (V=0)   39  0.114612D+01          0.059231          0.136385
 Vib (V=0)   40  0.113312D+01          0.054276          0.124975
 Vib (V=0)   41  0.113040D+01          0.053233          0.122574
 Vib (V=0)   42  0.110886D+01          0.044877          0.103332
 Vib (V=0)   43  0.110247D+01          0.042368          0.097556
 Vib (V=0)   44  0.110005D+01          0.041411          0.095351
 Vib (V=0)   45  0.109722D+01          0.040293          0.092778
 Vib (V=0)   46  0.108606D+01          0.035856          0.082561
 Vib (V=0)   47  0.107859D+01          0.032858          0.075659
 Vib (V=0)   48  0.107257D+01          0.030425          0.070057
 Vib (V=0)   49  0.106795D+01          0.028550          0.065738
 Vib (V=0)   50  0.106113D+01          0.025767          0.059330
 Vib (V=0)   51  0.105295D+01          0.022409          0.051599
 Electronic      0.100000D+01          0.000000          0.000000
 Translational   0.402016D+09          8.604244         19.812003
 Rotational      0.199872D+08          7.300751         16.810600
 -------------------------------------------------------------------
 Center     Atomic                   Forces (Hartrees/Bohr)
 Number     Number              X              Y              Z
 -------------------------------------------------------------------
      1        6          -0.000000719   -0.000000674    0.000001386
      2        6           0.000000109    0.000000555    0.000001074
      3        6          -0.000000492   -0.000000368    0.000001005
      4        6          -0.000000396    0.000000712    0.000001433
      5        6          -0.000000729    0.000000589    0.000002020
      6        6          -0.000000626    0.000000430    0.000002050
      7        1          -0.000000444    0.000000404    0.000001604
      8        1          -0.000000216   -0.000000241    0.000000536
      9        1          -0.000000423   -0.000000319    0.000001351
     10        1          -0.000001038   -0.000000288    0.000002277
     11        1          -0.000000479    0.000000158    0.000002576
     12        6          -0.000000518    0.000000681   -0.000000005
     13        6          -0.000000105   -0.000001186    0.000000081
     14        6          -0.000000071   -0.000000093    0.000000868
     15        6          -0.000000469   -0.000000290   -0.000000599
     16        1          -0.000000600   -0.000000184   -0.000000804
     17        6           0.000000690   -0.000000166    0.000000200
     18        1           0.000000448    0.000000419    0.000000817
     19        6          -0.000000618    0.000000589   -0.000000138
     20        1          -0.000000780   -0.000000496   -0.000000730
     21        1           0.000000118    0.000000270    0.000000874
     22        1          -0.000000190   -0.000000303   -0.000000052
     23       16          -0.000000018   -0.000000154   -0.000000112
     24        8          -0.000001464   -0.000000650   -0.000001000
     25        8          -0.000001615   -0.000000819   -0.000000086
     26        6          -0.000000645   -0.000000692   -0.000000186
     27        6          -0.000001272    0.000000337    0.000000036
     28        6          -0.000000402   -0.000000677   -0.000001011
     29        6          -0.000000758   -0.000000601    0.000000631
     30        1          -0.000001381   -0.000000674    0.000000499
     31        6           0.000000286    0.000000561   -0.000000258
     32        1          -0.000000246   -0.000000331   -0.000001134
     33        6          -0.000001207   -0.000000959   -0.000000719
     34        1          -0.000001141   -0.000000352    0.000000610
     35        1          -0.000000190   -0.000000667   -0.000001326
     36        6          -0.000000710   -0.000000273   -0.000000780
     37        1          -0.000000684   -0.000000395   -0.000000366
     38        1          -0.000000441   -0.000000213    0.000000217
     39        1          -0.000000107    0.000000015    0.000000105
     40        7          -0.000000287   -0.000000513    0.000000046
     41        1          -0.000000082   -0.000000122   -0.000000744
     42        6           0.000042572    0.000390914    0.001215565
     43        6           0.000000736    0.000000025   -0.000000638
     44        6           0.000000958    0.000000467    0.000000349
     45        6           0.000000942    0.000000616   -0.000000788
     46        6           0.000000762    0.000000564   -0.000000132
     47        1           0.000000764    0.000000575    0.000000758
     48        6           0.000001092   -0.000000152   -0.000000765
     49        6          -0.000041767   -0.000389929   -0.001215724
     50        1           0.000000831    0.000000254    0.000000601
     51        6           0.000001082    0.000000270   -0.000002125
     52        1           0.000000854   -0.000000140   -0.000001826
     53        1           0.000001361    0.000000252   -0.000001697
     54        1           0.000000653   -0.000000060   -0.000001754
     55        6           0.000001204    0.000000374    0.000000261
     56        1           0.000001260    0.000000436   -0.000000346
     57        1           0.000000532    0.000000296   -0.000000148
     58        1           0.000000944    0.000000537    0.000000534
     59        6           0.000001367    0.000000231   -0.000001089
     60        1           0.000001046    0.000000341   -0.000000290
     61        1           0.000000383    0.000000151   -0.000000717
     62        1           0.000001410    0.000000397   -0.000000978
     63        8           0.000000925    0.000000562   -0.000001300
 -------------------------------------------------------------------
 Cartesian Forces:  Max     0.001215724 RMS     0.000131417
 FormGI is forming the generalized inverse of G from B-inverse, IUseBI=4.

 GradGradGradGradGradGradGradGradGradGradGradGradGradGradGradGradGradGrad
 Berny optimization.
 Internal  Forces:  Max     0.000883242 RMS     0.000054565
 Search for a saddle point.
 Step number   1 out of a maximum of    2
 All quantities printed in internal units (Hartrees-Bohrs-Radians)
 Swapping is turned off.
 Second derivative matrix not updated -- analytic derivatives used.
 ITU=  0
     Eigenvalues ---    0.00012   0.00044   0.00113   0.00124   0.00163
     Eigenvalues ---    0.00276   0.00423   0.00505   0.00653   0.00697
     Eigenvalues ---    0.00910   0.01023   0.01253   0.01304   0.01386
     Eigenvalues ---    0.01420   0.01474   0.01544   0.01584   0.01625
     Eigenvalues ---    0.01639   0.01679   0.01707   0.01751   0.01771
     Eigenvalues ---    0.01802   0.01920   0.01951   0.01962   0.02122
     Eigenvalues ---    0.02140   0.02247   0.02294   0.02304   0.02326
     Eigenvalues ---    0.02368   0.02420   0.02461   0.02505   0.02556
     Eigenvalues ---    0.02592   0.02707   0.02749   0.02766   0.02786
     Eigenvalues ---    0.02793   0.02860   0.02916   0.03442   0.03838
     Eigenvalues ---    0.03929   0.04462   0.04513   0.04639   0.04703
     Eigenvalues ---    0.05163   0.05624   0.05731   0.05763   0.05971
     Eigenvalues ---    0.05989   0.06936   0.10188   0.10357   0.10529
     Eigenvalues ---    0.11144   0.11191   0.11623   0.11783   0.11848
     Eigenvalues ---    0.11991   0.12042   0.12150   0.12162   0.12184
     Eigenvalues ---    0.12291   0.12363   0.12364   0.12415   0.12446
     Eigenvalues ---    0.12586   0.12626   0.12745   0.12909   0.13047
     Eigenvalues ---    0.13807   0.14321   0.14494   0.14604   0.14657
     Eigenvalues ---    0.14723   0.14839   0.15247   0.15554   0.15712
     Eigenvalues ---    0.16030   0.16484   0.16591   0.16908   0.16970
     Eigenvalues ---    0.17554   0.18716   0.18757   0.19028   0.19106
     Eigenvalues ---    0.19249   0.19308   0.19355   0.19479   0.19736
     Eigenvalues ---    0.19867   0.20038   0.20372   0.21773   0.21885
     Eigenvalues ---    0.23605   0.25700   0.26897   0.27505   0.28057
     Eigenvalues ---    0.29724   0.29824   0.30818   0.31216   0.31578
     Eigenvalues ---    0.31783   0.32698   0.32865   0.33174   0.33296
     Eigenvalues ---    0.33322   0.33395   0.33535   0.33749   0.33941
     Eigenvalues ---    0.34018   0.34130   0.34176   0.34614   0.34674
     Eigenvalues ---    0.34759   0.35050   0.35086   0.35649   0.35815
     Eigenvalues ---    0.35860   0.35866   0.35953   0.35988   0.36124
     Eigenvalues ---    0.36160   0.36170   0.36651   0.36745   0.36875
     Eigenvalues ---    0.36970   0.37520   0.37803   0.38232   0.39436
     Eigenvalues ---    0.40228   0.41174   0.41770   0.41983   0.42218
     Eigenvalues ---    0.43139   0.43559   0.44381   0.46642   0.46780
     Eigenvalues ---    0.46927   0.46963   0.47099   0.47192   0.50905
     Eigenvalues ---    0.51232   0.51318   0.52779   0.58992   0.61386
     Eigenvalues ---    0.65876   0.734221000.000001000.000001000.00000
     Eigenvalues --- 1000.000001000.000001000.000001000.000001000.00000
     Eigenvalues --- 1000.000001000.000001000.000001000.000001000.00000
     Eigenvalues --- 1000.000001000.000001000.000001000.000001000.00000
     Eigenvalues --- 1000.000001000.000001000.000001000.000001000.00000
     Eigenvalues --- 1000.000001000.000001000.000001000.000001000.00000
     Eigenvalues --- 1000.000001000.000001000.000001000.000001000.00000
     Eigenvalues --- 1000.000001000.000001000.000001000.000001000.00000
     Eigenvalues --- 1000.000001000.000001000.000001000.000001000.00000
     Eigenvalues --- 1000.000001000.000001000.000001000.000001000.00000
     Eigenvalues --- 1000.000001000.000001000.000001000.000001000.00000
     Eigenvalues --- 1000.000001000.000001000.000001000.000001000.00000
     Eigenvalues --- 1000.000001000.000001000.000001000.000001000.00000
     Eigenvalues --- 1000.000001000.000001000.000001000.000001000.00000
     Eigenvalues --- 1000.000001000.000001000.000001000.000001000.00000
     Eigenvalues --- 1000.000001000.000001000.000001000.000001000.00000
     Eigenvalues --- 1000.000001000.000001000.000001000.000001000.00000
     Eigenvalues --- 1000.000001000.000001000.000001000.000001000.00000
     Eigenvalues --- 1000.000001000.000001000.000001000.000001000.00000
     Eigenvalues --- 1000.000001000.000001000.000001000.000001000.00000
     Eigenvalues --- 1000.000001000.000001000.000001000.000001000.00000
     Eigenvalues --- 1000.000001000.000001000.000001000.000001000.00000
     Eigenvalues --- 1000.000001000.000001000.000001000.000001000.00000
     Eigenvalues --- 1000.000001000.000001000.000001000.000001000.00000
     Eigenvalues --- 1000.000001000.000001000.000001000.000001000.00000
     Eigenvalues --- 1000.000001000.000001000.000001000.000001000.00000
     Eigenvalues --- 1000.000001000.000001000.000001000.000001000.00000
     Eigenvalues --- 1000.000001000.000001000.000001000.000001000.00000
     Eigenvalues --- 1000.000001000.000001000.000001000.000001000.00000
     Eigenvalues --- 1000.000001000.000001000.000001000.000001000.00000
     Eigenvalues --- 1000.000001000.000001000.000001000.000001000.00000
     Eigenvalues --- 1000.000001000.000001000.000001000.000001000.00000
     Eigenvalues --- 1000.000001000.000001000.000001000.000001000.00000
     Eigenvalues --- 1000.000001000.000001000.000001000.000001000.00000
     Eigenvalues --- 1000.000001000.000001000.000001000.000001000.00000
     Eigenvalues --- 1000.000001000.000001000.000001000.000001000.00000
     Eigenvalues --- 1000.000001000.000001000.000001000.000001000.00000
     Eigenvalues --- 1000.000001000.000001000.000001000.000001000.00000
     Eigenvalues --- 1000.000001000.000001000.000001000.000001000.00000
     Eigenvalues --- 1000.000001000.000001000.000001000.00000
 Eigenvectors required to have negative eigenvalues:
                         D100      D102      D101      D103      D105
   1                    0.42481   0.41560   0.40897   0.40712   0.39790
                         D104       D95       D99       D93       D97
   1                    0.39127  -0.02201   0.02093  -0.02065   0.02037
 Eigenvalue     1 is   1.18D-04 should be less than     0.000000 Eigenvector:
                         D100      D102      D101      D103      D105
   1                    0.42481   0.41560   0.40897   0.40712   0.39790
                         D104       D95       D99       D93       D97
   1                    0.39127  -0.02201   0.02093  -0.02065   0.02037
 Angle between quadratic step and forces=  97.59 degrees.
 Linear search not attempted -- option 19 set.
 Iteration  1 RMS(Cart)=  0.00018428 RMS(Int)=  0.00000009
 Iteration  2 RMS(Cart)=  0.00000010 RMS(Int)=  0.00000000
 Iteration  1 RMS(Cart)=  0.00000000 RMS(Int)=  0.00000000
 Variable       Old X    -DE/DX   Delta X   Delta X   Delta X     New X
                                 (Linear)    (Quad)   (Total)
    R1        2.62516   0.00000   0.00000   0.00000   0.00000   2.62516
    R2        2.64083  -0.00000   0.00000  -0.00000  -0.00000   2.64083
    R3        2.05222   0.00000   0.00000   0.00000   0.00000   2.05222
    R4        2.66577  -0.00000   0.00000   0.00000   0.00000   2.66577
    R5        2.04207  -0.00000   0.00000  -0.00000  -0.00000   2.04206
    R6        2.66069  -0.00000   0.00000  -0.00000  -0.00000   2.66069
    R7        2.79790  -0.00000   0.00000  -0.00000  -0.00000   2.79789
    R8        2.63248   0.00000   0.00000   0.00000   0.00000   2.63248
    R9        2.04531   0.00000   0.00000   0.00000   0.00000   2.04531
   R10        2.63668  -0.00000   0.00000  -0.00000  -0.00000   2.63668
   R11        2.05204   0.00000   0.00000   0.00000   0.00000   2.05204
   R12        2.05205  -0.00000   0.00000  -0.00000  -0.00000   2.05205
   R13        2.65730   0.00000   0.00000   0.00000   0.00000   2.65730
   R14        2.66331  -0.00001   0.00000   0.00000   0.00000   2.66331
   R15        2.81217   0.00004   0.00000  -0.00000  -0.00000   2.81217
   R16        2.63698   0.00000   0.00000  -0.00000  -0.00000   2.63698
   R17        2.04923   0.00000   0.00000   0.00000   0.00000   2.04923
   R18        2.62711  -0.00000   0.00000   0.00000   0.00000   2.62711
   R19        2.05028  -0.00005   0.00000  -0.00000  -0.00000   2.05028
   R20        2.63391  -0.00000   0.00000  -0.00000  -0.00000   2.63391
   R21        2.05190  -0.00000   0.00000  -0.00000  -0.00000   2.05190
   R22        2.64291  -0.00000   0.00000  -0.00000  -0.00000   2.64291
   R23        2.05220   0.00000   0.00000   0.00000   0.00000   2.05221
   R24        4.30626  -0.00014   0.00000   0.00000   0.00000   4.30626
   R25        2.05158   0.00000   0.00000   0.00000   0.00000   2.05158
   R26        2.77430  -0.00000   0.00000  -0.00000  -0.00000   2.77429
   R27        2.76287   0.00000   0.00000   0.00000   0.00000   2.76287
   R28        3.37064  -0.00000   0.00000   0.00000   0.00000   3.37064
   R29        3.25062   0.00000   0.00000  -0.00000  -0.00000   3.25062
   R30        2.63425   0.00000   0.00000   0.00001   0.00001   2.63425
   R31        2.63719  -0.00000   0.00000  -0.00001  -0.00001   2.63718
   R32        2.63432  -0.00000   0.00000  -0.00001  -0.00001   2.63431
   R33        2.04809   0.00000   0.00000   0.00000   0.00000   2.04809
   R34        2.62795   0.00000   0.00000   0.00001   0.00001   2.62795
   R35        2.04665  -0.00000   0.00000   0.00000   0.00000   2.04665
   R36        2.64870  -0.00000   0.00000   0.00001   0.00001   2.64871
   R37        2.05315  -0.00000   0.00000   0.00000   0.00000   2.05315
   R38        2.65293   0.00000   0.00000  -0.00001  -0.00001   2.65292
   R39        2.05161  -0.00000   0.00000  -0.00000  -0.00000   2.05161
   R40        2.85118   0.00000   0.00000   0.00000   0.00000   2.85118
   R41        2.07232  -0.00000   0.00000   0.00000   0.00000   2.07233
   R42        2.06620  -0.00000   0.00000   0.00000   0.00000   2.06621
   R43        2.06816   0.00000   0.00000  -0.00001  -0.00001   2.06815
   R44        1.92519  -0.00011   0.00000  -0.00000  -0.00000   1.92519
   R45        2.64391   0.00003   0.00000  -0.00000  -0.00000   2.64391
   R46        4.52961  -0.00015   0.00000  -0.00001  -0.00001   4.52961
   R47        4.38099  -0.00010   0.00000  -0.00001  -0.00001   4.38099
   R48        4.41992  -0.00088   0.00000   0.00000  -0.00000   4.41992
   R49        2.60083   0.00004   0.00000   0.00000   0.00000   2.60083
   R50        2.72436   0.00002   0.00000  -0.00000  -0.00000   2.72436
   R51        2.85314   0.00000   0.00000   0.00000   0.00000   2.85314
   R52        2.57259  -0.00000   0.00000   0.00000   0.00000   2.57259
   R53        2.05299   0.00000   0.00000   0.00000   0.00000   2.05299
   R54        2.70020   0.00000   0.00000   0.00000   0.00000   2.70020
   R55        2.79530   0.00000   0.00000  -0.00000  -0.00000   2.79530
   R56        2.84638   0.00000   0.00000   0.00000   0.00000   2.84638
   R57        2.78788  -0.00000   0.00000   0.00000   0.00000   2.78788
   R58        2.83439  -0.00000   0.00000  -0.00000  -0.00000   2.83439
   R59        2.35224   0.00000   0.00000   0.00000   0.00000   2.35224
   R60        2.04825  -0.00003   0.00000   0.00000   0.00000   2.04825
   R61        2.06090  -0.00000   0.00000  -0.00000  -0.00000   2.06090
   R62        2.07452   0.00000   0.00000   0.00000   0.00000   2.07452
   R63        2.07128  -0.00000   0.00000  -0.00000  -0.00000   2.07128
   R64        2.06818  -0.00000   0.00000  -0.00000  -0.00000   2.06818
   R65        2.07095   0.00000   0.00000   0.00000   0.00000   2.07095
   R66        2.06672   0.00000   0.00000   0.00000   0.00000   2.06672
   R67        2.06139   0.00000   0.00000   0.00000   0.00000   2.06139
   R68        2.07055  -0.00000   0.00000  -0.00000  -0.00000   2.07055
   R69        2.07101   0.00000   0.00000   0.00000   0.00000   2.07101
    A1        2.09957   0.00000   0.00000   0.00000   0.00000   2.09957
    A2        2.08265  -0.00000   0.00000  -0.00000  -0.00000   2.08264
    A3        2.10094   0.00000   0.00000   0.00000   0.00000   2.10094
    A4        2.11441  -0.00000   0.00000  -0.00000  -0.00000   2.11441
    A5        2.08957   0.00000   0.00000   0.00000   0.00000   2.08957
    A6        2.07920   0.00000   0.00000   0.00000   0.00000   2.07920
    A7        2.05663  -0.00000   0.00000   0.00000   0.00000   2.05663
    A8        2.08747  -0.00000   0.00000  -0.00000  -0.00000   2.08747
    A9        2.13744   0.00000   0.00000   0.00000   0.00000   2.13744
   A10        2.10911   0.00000   0.00000   0.00000   0.00000   2.10911
   A11        2.09525   0.00000   0.00000   0.00000   0.00000   2.09525
   A12        2.07795  -0.00000   0.00000  -0.00000  -0.00000   2.07795
   A13        2.10373   0.00000   0.00000  -0.00000  -0.00000   2.10373
   A14        2.08307  -0.00000   0.00000  -0.00000  -0.00000   2.08307
   A15        2.09622   0.00000   0.00000   0.00000   0.00000   2.09622
   A16        2.08250  -0.00000   0.00000  -0.00000  -0.00000   2.08250
   A17        2.10077   0.00000   0.00000   0.00000   0.00000   2.10077
   A18        2.09981  -0.00000   0.00000  -0.00000  -0.00000   2.09981
   A19        2.06101  -0.00002   0.00000  -0.00000  -0.00000   2.06101
   A20        2.09791  -0.00002   0.00000   0.00000   0.00000   2.09791
   A21        2.12418   0.00004   0.00000   0.00000   0.00000   2.12418
   A22        2.10690   0.00001   0.00000   0.00000   0.00000   2.10690
   A23        2.09682  -0.00000   0.00000  -0.00000  -0.00000   2.09682
   A24        2.07941  -0.00000   0.00000  -0.00000  -0.00000   2.07941
   A25        2.11252   0.00002   0.00000   0.00000   0.00000   2.11252
   A26        2.08483  -0.00005   0.00000  -0.00000  -0.00000   2.08483
   A27        2.08568   0.00003   0.00000   0.00000   0.00000   2.08568
   A28        2.10353   0.00000   0.00000  -0.00000  -0.00000   2.10353
   A29        2.08212  -0.00000   0.00000   0.00000   0.00000   2.08212
   A30        2.09752  -0.00000   0.00000   0.00000   0.00000   2.09752
   A31        2.09888  -0.00001   0.00000  -0.00000  -0.00000   2.09888
   A32        2.08744   0.00000   0.00000  -0.00000  -0.00000   2.08744
   A33        2.09682   0.00000   0.00000   0.00000   0.00000   2.09682
   A34        1.75320  -0.00008   0.00000  -0.00000  -0.00000   1.75320
   A35        2.08353  -0.00000   0.00000   0.00000   0.00000   2.08353
   A36        2.10099   0.00000   0.00000   0.00000   0.00000   2.10099
   A37        2.09867   0.00000   0.00000  -0.00000  -0.00000   2.09867
   A38        2.13193   0.00000   0.00000   0.00000   0.00000   2.13193
   A39        1.89044  -0.00000   0.00000  -0.00000  -0.00000   1.89044
   A40        1.80175   0.00000   0.00000   0.00000   0.00000   1.80175
   A41        1.90530  -0.00000   0.00000  -0.00000  -0.00000   1.90530
   A42        1.89541  -0.00000   0.00000  -0.00000  -0.00000   1.89541
   A43        1.81134   0.00000   0.00000   0.00000   0.00000   1.81135
   A44        2.08288   0.00000   0.00000  -0.00000  -0.00000   2.08288
   A45        2.07531  -0.00000   0.00000   0.00000   0.00000   2.07531
   A46        2.12446  -0.00000   0.00000  -0.00000  -0.00000   2.12446
   A47        2.07084   0.00000   0.00000   0.00000   0.00000   2.07084
   A48        2.09027  -0.00000   0.00000  -0.00000  -0.00000   2.09027
   A49        2.12194  -0.00000   0.00000   0.00000   0.00000   2.12194
   A50        2.07112   0.00000   0.00000   0.00000   0.00000   2.07112
   A51        2.11759  -0.00000   0.00000   0.00000   0.00000   2.11759
   A52        2.09365  -0.00000   0.00000  -0.00000  -0.00000   2.09365
   A53        2.11386   0.00000   0.00000   0.00000   0.00000   2.11386
   A54        2.08272   0.00000   0.00000   0.00000   0.00000   2.08272
   A55        2.08658  -0.00000   0.00000  -0.00000  -0.00000   2.08658
   A56        2.11477  -0.00000   0.00000  -0.00000  -0.00000   2.11477
   A57        2.07333   0.00000   0.00000  -0.00000  -0.00000   2.07332
   A58        2.09483   0.00000   0.00000   0.00000   0.00000   2.09484
   A59        2.07123   0.00000   0.00000  -0.00000  -0.00000   2.07123
   A60        2.11261   0.00000   0.00000  -0.00002  -0.00002   2.11258
   A61        2.09931  -0.00000   0.00000   0.00002   0.00002   2.09934
   A62        1.93286   0.00000   0.00000  -0.00001  -0.00001   1.93285
   A63        1.94930  -0.00000   0.00000  -0.00001  -0.00001   1.94929
   A64        1.94074  -0.00000   0.00000   0.00002   0.00002   1.94076
   A65        1.87781   0.00000   0.00000  -0.00002  -0.00002   1.87779
   A66        1.87032  -0.00000   0.00000   0.00001   0.00001   1.87034
   A67        1.88971   0.00000   0.00000   0.00001   0.00001   1.88972
   A68        1.89418  -0.00002   0.00000  -0.00000  -0.00000   1.89418
   A69        2.19335   0.00002   0.00000  -0.00000  -0.00000   2.19335
   A70        2.00609   0.00000   0.00000   0.00000   0.00000   2.00609
   A71        1.97509  -0.00012   0.00000   0.00000   0.00000   1.97509
   A72        2.25603  -0.00012   0.00000   0.00000   0.00000   2.25603
   A73        2.10724   0.00000   0.00000   0.00000   0.00000   2.10724
   A74        2.00386  -0.00002   0.00000   0.00000   0.00000   2.00386
   A75        1.85874  -0.00006   0.00000   0.00000   0.00000   1.85874
   A76        2.03848  -0.00003   0.00000  -0.00000  -0.00000   2.03848
   A77        1.69020   0.00006   0.00000  -0.00000  -0.00000   1.69019
   A78        1.64432   0.00008   0.00000  -0.00000  -0.00000   1.64432
   A79        1.54818  -0.00006   0.00000   0.00000   0.00000   1.54819
   A80        1.91407   0.00005   0.00000  -0.00000  -0.00000   1.91407
   A81        2.08621  -0.00001   0.00000  -0.00000  -0.00000   2.08621
   A82        2.10537   0.00001   0.00000  -0.00000  -0.00000   2.10537
   A83        2.09106  -0.00001   0.00000   0.00000   0.00000   2.09106
   A84        2.09171  -0.00000   0.00000  -0.00000  -0.00000   2.09171
   A85        2.12374   0.00001   0.00000  -0.00000  -0.00000   2.12374
   A86        2.06381  -0.00001   0.00000   0.00000   0.00000   2.06381
   A87        1.57853  -0.00004   0.00000  -0.00000  -0.00000   1.57853
   A88        1.84935   0.00006   0.00000  -0.00000  -0.00000   1.84935
   A89        2.10047  -0.00000   0.00000  -0.00000  -0.00000   2.10047
   A90        2.13586   0.00001   0.00000   0.00000   0.00000   2.13586
   A91        2.04602  -0.00000   0.00000  -0.00000  -0.00000   2.04602
   A92        2.08296  -0.00000   0.00000  -0.00000  -0.00000   2.08296
   A93        2.15391  -0.00000   0.00000  -0.00000  -0.00000   2.15391
   A94        2.04621   0.00000   0.00000   0.00000   0.00000   2.04621
   A95        2.05536   0.00000   0.00000   0.00000   0.00000   2.05536
   A96        2.12528  -0.00000   0.00000   0.00000   0.00000   2.12528
   A97        2.10239  -0.00000   0.00000  -0.00000  -0.00000   2.10239
   A98        1.74176   0.00009   0.00000  -0.00000  -0.00000   1.74176
   A99        1.73855  -0.00003   0.00000   0.00000   0.00000   1.73855
   A100       1.63733   0.00002   0.00000   0.00000   0.00000   1.63733
   A101       2.07905  -0.00001   0.00000   0.00000   0.00000   2.07905
   A102       2.05231  -0.00003   0.00000  -0.00000  -0.00000   2.05231
   A103       2.05770   0.00001   0.00000  -0.00000  -0.00000   2.05770
   A104       2.24898   0.00006   0.00000  -0.00000  -0.00000   2.24898
   A105       1.91339  -0.00000   0.00000  -0.00000  -0.00000   1.91339
   A106       1.94179  -0.00000   0.00000  -0.00000  -0.00000   1.94179
   A107       1.95271   0.00000   0.00000   0.00000   0.00000   1.95271
   A108       1.89041   0.00000   0.00000   0.00000   0.00000   1.89041
   A109       1.90072   0.00000   0.00000   0.00000   0.00000   1.90072
   A110       1.86298   0.00000   0.00000   0.00000   0.00000   1.86298
   A111       1.93284   0.00000   0.00000   0.00000   0.00000   1.93284
   A112       1.92809   0.00000   0.00000   0.00000   0.00000   1.92809
   A113       1.94384  -0.00000   0.00000  -0.00000  -0.00000   1.94384
   A114       1.85076  -0.00000   0.00000  -0.00000  -0.00000   1.85076
   A115       1.90902   0.00000   0.00000  -0.00000  -0.00000   1.90902
   A116       1.89664  -0.00000   0.00000  -0.00000  -0.00000   1.89664
   A117       1.95193   0.00000   0.00000   0.00000   0.00000   1.95193
   A118       1.94809   0.00000   0.00000   0.00000   0.00000   1.94809
   A119       1.92807   0.00000   0.00000  -0.00000  -0.00000   1.92807
   A120       1.87227  -0.00000   0.00000   0.00000   0.00000   1.87227
   A121       1.89317  -0.00000   0.00000  -0.00000  -0.00000   1.89317
   A122       1.86699   0.00000   0.00000   0.00000   0.00000   1.86699
    D1       -0.00760   0.00000   0.00000  -0.00000  -0.00000  -0.00760
    D2        3.13741   0.00000   0.00000   0.00000   0.00000   3.13741
    D3       -3.14106  -0.00000   0.00000  -0.00000  -0.00000  -3.14106
    D4        0.00395  -0.00000   0.00000  -0.00000  -0.00000   0.00395
    D5       -0.01291  -0.00000   0.00000  -0.00000  -0.00000  -0.01291
    D6       -3.13904  -0.00000   0.00000  -0.00000  -0.00000  -3.13904
    D7        3.12047   0.00000   0.00000   0.00000   0.00000   3.12047
    D8       -0.00567   0.00000   0.00000   0.00000   0.00000  -0.00567
    D9        0.02801   0.00000   0.00000   0.00000   0.00000   0.02801
   D10        3.10930  -0.00000   0.00000  -0.00000  -0.00000   3.10930
   D11       -3.11698   0.00000   0.00000   0.00000   0.00000  -3.11698
   D12       -0.03569  -0.00000   0.00000  -0.00000  -0.00000  -0.03570
   D13       -0.02858  -0.00000   0.00000  -0.00000  -0.00000  -0.02858
   D14        3.06773  -0.00000   0.00000  -0.00000  -0.00000   3.06773
   D15       -3.10803   0.00000   0.00000   0.00000   0.00000  -3.10803
   D16       -0.01171   0.00000   0.00000   0.00000   0.00000  -0.01171
   D17        3.12263   0.00004   0.00000   0.00000   0.00000   3.12263
   D18       -0.56855  -0.00005   0.00000   0.00000   0.00000  -0.56855
   D19        1.22543   0.00001   0.00000   0.00000   0.00000   1.22543
   D20       -0.08217   0.00004   0.00000  -0.00000  -0.00000  -0.08217
   D21        2.50983  -0.00005   0.00000   0.00000   0.00000   2.50983
   D22       -1.97937   0.00001   0.00000   0.00000   0.00000  -1.97937
   D23        0.00889   0.00000   0.00000   0.00000   0.00000   0.00889
   D24        3.13071   0.00000   0.00000   0.00000   0.00000   3.13071
   D25       -3.08787   0.00000   0.00000   0.00000   0.00000  -3.08787
   D26        0.03396   0.00000   0.00000   0.00000   0.00000   0.03396
   D27        0.01228  -0.00000   0.00000  -0.00000  -0.00000   0.01228
   D28        3.13842   0.00000   0.00000  -0.00000  -0.00000   3.13842
   D29       -3.10940  -0.00000   0.00000  -0.00000  -0.00000  -3.10940
   D30        0.01674   0.00000   0.00000   0.00000   0.00000   0.01674
   D31        0.00033  -0.00004   0.00000   0.00000   0.00000   0.00033
   D32        3.13046  -0.00001   0.00000   0.00000   0.00000   3.13046
   D33        3.12825  -0.00003   0.00000   0.00000   0.00000   3.12825
   D34       -0.02480  -0.00001   0.00000   0.00000   0.00000  -0.02480
   D35       -0.00275   0.00005   0.00000  -0.00000  -0.00000  -0.00275
   D36        3.12001   0.00007   0.00000  -0.00000  -0.00000   3.12001
   D37       -3.13045   0.00004   0.00000  -0.00000  -0.00000  -3.13045
   D38       -0.00769   0.00007   0.00000   0.00000   0.00000  -0.00769
   D39        2.27747   0.00005   0.00000   0.00000   0.00000   2.27748
   D40       -0.30415   0.00014   0.00000   0.00000   0.00000  -0.30415
   D41       -2.01893   0.00003   0.00000   0.00000   0.00000  -2.01892
   D42       -0.87830   0.00006   0.00000   0.00000   0.00000  -0.87830
   D43        2.82326   0.00015   0.00000  -0.00000  -0.00000   2.82326
   D44        1.10849   0.00003   0.00000   0.00000   0.00000   1.10849
   D45       -0.00001   0.00001   0.00000  -0.00000  -0.00000  -0.00001
   D46        3.13622   0.00001   0.00000   0.00000   0.00000   3.13622
   D47       -3.13025  -0.00001   0.00000  -0.00000  -0.00000  -3.13025
   D48        0.00597  -0.00001   0.00000   0.00000   0.00000   0.00597
   D49        0.00485  -0.00003   0.00000   0.00000   0.00000   0.00485
   D50        3.13607  -0.00000   0.00000  -0.00000  -0.00000   3.13607
   D51       -3.11791  -0.00005   0.00000  -0.00000  -0.00000  -3.11791
   D52        0.01332  -0.00003   0.00000  -0.00000  -0.00000   0.01331
   D53       -0.94425   0.00011   0.00000  -0.00000  -0.00000  -0.94425
   D54        2.17880   0.00014   0.00000  -0.00000  -0.00000   2.17880
   D55        0.00204   0.00002   0.00000   0.00000   0.00000   0.00204
   D56       -3.13900   0.00000   0.00000   0.00000   0.00000  -3.13900
   D57       -3.13414   0.00001   0.00000  -0.00000  -0.00000  -3.13414
   D58        0.00801  -0.00001   0.00000  -0.00000  -0.00000   0.00801
   D59       -0.00444  -0.00001   0.00000  -0.00000  -0.00000  -0.00444
   D60        3.13660   0.00001   0.00000  -0.00000  -0.00000   3.13660
   D61       -3.13560  -0.00003   0.00000   0.00000   0.00000  -3.13560
   D62        0.00544  -0.00001   0.00000   0.00000   0.00000   0.00544
   D63        0.86049  -0.00002   0.00000   0.00001   0.00001   0.86049
   D64        2.43310  -0.00000   0.00000  -0.00000  -0.00000   2.43310
   D65       -0.74323  -0.00000   0.00000  -0.00000  -0.00000  -0.74323
   D66        0.07497  -0.00000   0.00000  -0.00000  -0.00000   0.07497
   D67       -3.10136   0.00000   0.00000  -0.00000  -0.00000  -3.10136
   D68       -1.94356   0.00000   0.00000  -0.00000  -0.00000  -1.94356
   D69        1.16330   0.00000   0.00000  -0.00000  -0.00000   1.16329
   D70        0.21423  -0.00000   0.00000  -0.00001  -0.00001   0.21422
   D71       -2.26411   0.00000   0.00000  -0.00001  -0.00001  -2.26411
   D72        2.50041  -0.00000   0.00000  -0.00001  -0.00001   2.50041
   D73        0.02208   0.00000   0.00000  -0.00001  -0.00001   0.02207
   D74       -1.75726  -0.00000   0.00000  -0.00001  -0.00001  -1.75726
   D75        2.04759   0.00000   0.00000  -0.00001  -0.00001   2.04759
   D76        3.10556  -0.00000   0.00000  -0.00000  -0.00000   3.10556
   D77       -0.01901   0.00000   0.00000   0.00001   0.00001  -0.01900
   D78       -0.00028  -0.00000   0.00000   0.00000   0.00000  -0.00028
   D79       -3.12485  -0.00000   0.00000   0.00001   0.00001  -3.12484
   D80       -3.09431   0.00000   0.00000  -0.00000  -0.00000  -3.09431
   D81        0.00339  -0.00000   0.00000  -0.00001  -0.00001   0.00338
   D82        0.01168   0.00000   0.00000  -0.00000  -0.00000   0.01168
   D83        3.10937   0.00000   0.00000  -0.00001  -0.00001   3.10937
   D84       -0.00798   0.00000   0.00000   0.00000   0.00000  -0.00798
   D85       -3.14155   0.00000   0.00000   0.00001   0.00001  -3.14155
   D86        3.11626  -0.00000   0.00000  -0.00000  -0.00000   3.11626
   D87       -0.01731  -0.00000   0.00000   0.00000   0.00000  -0.01731
   D88       -0.01512  -0.00000   0.00000  -0.00000  -0.00000  -0.01512
   D89        3.10204  -0.00000   0.00000  -0.00000  -0.00000   3.10203
   D90       -3.11343   0.00000   0.00000   0.00000   0.00000  -3.11343
   D91        0.00372   0.00000   0.00000   0.00000   0.00000   0.00372
   D92        0.00462  -0.00000   0.00000  -0.00001  -0.00001   0.00461
   D93        3.13699  -0.00000   0.00000  -0.00006  -0.00006   3.13694
   D94        3.13817   0.00000   0.00000  -0.00001  -0.00001   3.13816
   D95       -0.01264   0.00000   0.00000  -0.00006  -0.00006  -0.01269
   D96        0.00718  -0.00000   0.00000   0.00001   0.00001   0.00719
   D97       -3.12527  -0.00000   0.00000   0.00005   0.00005  -3.12522
   D98       -3.10968   0.00000   0.00000   0.00001   0.00001  -3.10967
   D99        0.04106   0.00000   0.00000   0.00006   0.00006   0.04111
   D100      -1.77628  -0.00000   0.00000   0.00112   0.00112  -1.77517
   D101       0.31628  -0.00000   0.00000   0.00108   0.00108   0.31735
   D102       2.42939  -0.00000   0.00000   0.00109   0.00109   2.43049
   D103       1.35595  -0.00000   0.00000   0.00107   0.00107   1.35702
   D104      -2.83468  -0.00000   0.00000   0.00103   0.00103  -2.83365
   D105      -0.72156  -0.00000   0.00000   0.00105   0.00105  -0.72051
   D106       3.02692   0.00002   0.00000   0.00000   0.00000   3.02693
   D107       2.41133   0.00003   0.00000  -0.00000  -0.00000   2.41133
   D108      -0.69897   0.00003   0.00000   0.00000   0.00000  -0.69897
   D109      -1.31457   0.00004   0.00000  -0.00000  -0.00000  -1.31457
   D110      -1.00032   0.00003   0.00000  -0.00000  -0.00000  -1.00033
   D111       1.61423  -0.00004   0.00000  -0.00000  -0.00000   1.61423
   D112      -2.92631   0.00007   0.00000  -0.00000  -0.00000  -2.92631
   D113       2.84074   0.00005   0.00000  -0.00000  -0.00000   2.84074
   D114      -0.82790  -0.00003   0.00000  -0.00000  -0.00000  -0.82790
   D115       0.91475   0.00008   0.00000  -0.00000  -0.00000   0.91475
   D116      -0.07805   0.00008   0.00000   0.00000   0.00000  -0.07805
   D117       2.03955   0.00005   0.00000   0.00000   0.00000   2.03955
   D118      -0.85567  -0.00003   0.00000   0.00000   0.00000  -0.85567
   D119      -2.92496  -0.00002   0.00000   0.00000   0.00000  -2.92496
   D120      -2.94435   0.00000   0.00000   0.00000   0.00000  -2.94435
   D121      -0.81481   0.00001   0.00000   0.00000   0.00000  -0.81481
   D122       1.26451   0.00002   0.00000   0.00000   0.00000   1.26451
   D123       1.15863  -0.00001   0.00000   0.00000   0.00000   1.15863
   D124      -2.99502   0.00000   0.00000   0.00000   0.00000  -2.99501
   D125      -0.91569   0.00001   0.00000   0.00000   0.00000  -0.91569
   D126      -0.89480  -0.00000   0.00000   0.00000   0.00000  -0.89480
   D127       1.23473   0.00001   0.00000   0.00000   0.00000   1.23474
   D128      -2.96913   0.00001   0.00000   0.00000   0.00000  -2.96913
   D129       0.10183   0.00000   0.00000  -0.00000  -0.00000   0.10183
   D130      -3.08504   0.00002   0.00000   0.00000   0.00000  -3.08504
   D131      -3.07531  -0.00001   0.00000  -0.00000  -0.00000  -3.07531
   D132       0.02101   0.00001   0.00000   0.00000   0.00000   0.02101
   D133       0.42908   0.00002   0.00000  -0.00000  -0.00000   0.42908
   D134      -1.43608   0.00001   0.00000  -0.00000  -0.00000  -1.43608
   D135       2.16699   0.00008   0.00000   0.00000   0.00000   2.16699
   D136       1.58020  -0.00001   0.00000  -0.00000  -0.00000   1.58020
   D137      -0.28496  -0.00002   0.00000  -0.00000  -0.00000  -0.28496
   D138      -2.96507   0.00005   0.00000   0.00000   0.00000  -2.96507
   D139      -1.52614  -0.00000   0.00000  -0.00000  -0.00000  -1.52615
   D140       2.89188  -0.00001   0.00000  -0.00000  -0.00000   2.89188
   D141       0.21177   0.00006   0.00000   0.00000   0.00000   0.21177
   D142      -1.82616   0.00003   0.00000   0.00000   0.00000  -1.82616
   D143       0.27156   0.00003   0.00000   0.00000   0.00000   0.27156
   D144       2.34649   0.00003   0.00000   0.00000   0.00000   2.34649
   D145       3.09990  -0.00001   0.00000   0.00000   0.00000   3.09991
   D146      -1.08556  -0.00001   0.00000   0.00000   0.00000  -1.08556
   D147       0.98937  -0.00001   0.00000   0.00000   0.00000   0.98937
   D148      -0.07733  -0.00002   0.00000   0.00000   0.00000  -0.07733
   D149       2.02039  -0.00002   0.00000   0.00000   0.00000   2.02039
   D150      -2.18786  -0.00002   0.00000   0.00000   0.00000  -2.18786
   D151      -3.12189  -0.00003   0.00000   0.00000   0.00000  -3.12189
   D152       0.00443  -0.00002   0.00000   0.00000   0.00000   0.00443
   D153      -0.07715  -0.00002   0.00000   0.00000   0.00000  -0.07715
   D154       3.04917  -0.00001   0.00000   0.00000   0.00000   3.04917
   D155      -1.59122  -0.00005   0.00000   0.00000   0.00000  -1.59122
   D156       0.27575   0.00003   0.00000   0.00000   0.00000   0.27575
   D157       2.95444  -0.00005   0.00000   0.00000   0.00000   2.95444
   D158       1.45501  -0.00004   0.00000   0.00000   0.00000   1.45501
   D159      -2.96121   0.00004   0.00000   0.00000   0.00000  -2.96121
   D160      -0.28251  -0.00004   0.00000  -0.00000  -0.00000  -0.28251
   D161       1.38737  -0.00005   0.00000   0.00000   0.00000   1.38737
   D162      -1.77348  -0.00005   0.00000   0.00000   0.00000  -1.77348
   D163       0.09215   0.00001   0.00000   0.00000   0.00000   0.09215
   D164      -3.06870   0.00002   0.00000   0.00000   0.00000  -3.06869
   D165      -3.00644  -0.00000   0.00000   0.00000   0.00000  -3.00644
   D166       0.11590   0.00000   0.00000   0.00000   0.00000   0.11590
   D167       1.58076  -0.00000   0.00000   0.00000   0.00000   1.58076
   D168      -2.61186  -0.00000   0.00000   0.00000   0.00000  -2.61186
   D169      -0.52978  -0.00000   0.00000   0.00000   0.00000  -0.52978
   D170       3.03865  -0.00001   0.00000   0.00000   0.00000   3.03865
   D171      -1.15397  -0.00001   0.00000   0.00000   0.00000  -1.15397
   D172       0.92811  -0.00001   0.00000   0.00000   0.00000   0.92811
   D173      -0.14689   0.00001   0.00000   0.00001   0.00001  -0.14688
   D174       1.94368   0.00001   0.00000   0.00001   0.00001   1.94369
   D175      -2.25742   0.00001   0.00000   0.00001   0.00001  -2.25742
   D176      -0.10595  -0.00001   0.00000  -0.00000  -0.00000  -0.10596
   D177       3.05463  -0.00001   0.00000  -0.00000  -0.00000   3.05463
   D178       3.04998  -0.00001   0.00000  -0.00000  -0.00000   3.04998
   D179      -0.07262  -0.00002   0.00000  -0.00000  -0.00000  -0.07263
   D180       2.27918  -0.00000   0.00000  -0.00000  -0.00000   2.27917
   D181      -1.95883  -0.00000   0.00000  -0.00000  -0.00000  -1.95884
   D182       0.15066  -0.00000   0.00000  -0.00000  -0.00000   0.15066
   D183      -0.87739   0.00000   0.00000  -0.00000  -0.00000  -0.87739
   D184       1.16778   0.00000   0.00000  -0.00000  -0.00000   1.16778
   D185      -3.00590   0.00000   0.00000  -0.00000  -0.00000  -3.00591
   D186       0.14929   0.00005   0.00000  -0.00000  -0.00000   0.14928
   D187      -1.65071  -0.00006   0.00000  -0.00000  -0.00000  -1.65072
   D188       1.94664   0.00002   0.00000  -0.00000  -0.00000   1.94663
         Item               Value     Threshold  Converged?
 Maximum Force            0.000001     0.000450     YES
 RMS     Force            0.000000     0.000300     YES
 Maximum Displacement     0.001740     0.001800     YES
 RMS     Displacement     0.000184     0.001200     YES
 Predicted change in Energy= 1.209167D-09
 Optimization completed.
    -- Stationary point found.
                           ----------------------------
                           !   Optimized Parameters   !
                           ! (Angstroms and Degrees)  !
 --------------------------                            --------------------------
 ! Name  Definition              Value          Derivative Info.                !
 --------------------------------------------------------------------------------
 ! R1    R(1,2)                  1.3892         -DE/DX =    0.0                 !
 ! R2    R(1,6)                  1.3975         -DE/DX =    0.0                 !
 ! R3    R(1,7)                  1.086          -DE/DX =    0.0                 !
 ! R4    R(2,3)                  1.4107         -DE/DX =    0.0                 !
 ! R5    R(2,8)                  1.0806         -DE/DX =    0.0                 !
 ! R6    R(3,4)                  1.408          -DE/DX =    0.0                 !
 ! R7    R(3,42)                 1.4806         -DE/DX =    0.0                 !
 ! R8    R(4,5)                  1.393          -DE/DX =    0.0                 !
 ! R9    R(4,9)                  1.0823         -DE/DX =    0.0                 !
 ! R10   R(5,6)                  1.3953         -DE/DX =    0.0                 !
 ! R11   R(5,10)                 1.0859         -DE/DX =    0.0                 !
 ! R12   R(6,11)                 1.0859         -DE/DX =    0.0                 !
 ! R13   R(12,13)                1.4062         -DE/DX =    0.0                 !
 ! R14   R(12,14)                1.4094         -DE/DX =    0.0                 !
 ! R15   R(12,42)                1.4881         -DE/DX =    0.0                 !
 ! R16   R(13,15)                1.3954         -DE/DX =    0.0                 !
 ! R17   R(13,16)                1.0844         -DE/DX =    0.0                 !
 ! R18   R(14,17)                1.3902         -DE/DX =    0.0                 !
 ! R19   R(14,18)                1.085          -DE/DX =    0.0                 !
 ! R20   R(15,19)                1.3938         -DE/DX =    0.0                 !
 ! R21   R(15,20)                1.0858         -DE/DX =    0.0                 !
 ! R22   R(17,19)                1.3986         -DE/DX =    0.0                 !
 ! R23   R(17,21)                1.086          -DE/DX =    0.0                 !
 ! R24   R(18,50)                2.2788         -DE/DX =   -0.0001              !
 ! R25   R(19,22)                1.0856         -DE/DX =    0.0                 !
 ! R26   R(23,24)                1.4681         -DE/DX =    0.0                 !
 ! R27   R(23,25)                1.462          -DE/DX =    0.0                 !
 ! R28   R(23,26)                1.7837         -DE/DX =    0.0                 !
 ! R29   R(23,40)                1.7202         -DE/DX =    0.0                 !
 ! R30   R(26,27)                1.394          -DE/DX =    0.0                 !
 ! R31   R(26,28)                1.3955         -DE/DX =    0.0                 !
 ! R32   R(27,29)                1.394          -DE/DX =    0.0                 !
 ! R33   R(27,30)                1.0838         -DE/DX =    0.0                 !
 ! R34   R(28,31)                1.3906         -DE/DX =    0.0                 !
 ! R35   R(28,32)                1.083          -DE/DX =    0.0                 !
 ! R36   R(29,33)                1.4016         -DE/DX =    0.0                 !
 ! R37   R(29,34)                1.0865         -DE/DX =    0.0                 !
 ! R38   R(31,33)                1.4039         -DE/DX =    0.0                 !
 ! R39   R(31,35)                1.0857         -DE/DX =    0.0                 !
 ! R40   R(33,36)                1.5088         -DE/DX =    0.0                 !
 ! R41   R(36,37)                1.0966         -DE/DX =    0.0                 !
 ! R42   R(36,38)                1.0934         -DE/DX =    0.0                 !
 ! R43   R(36,39)                1.0944         -DE/DX =    0.0                 !
 ! R44   R(40,41)                1.0188         -DE/DX =   -0.0001              !
 ! R45   R(40,42)                1.3991         -DE/DX =    0.0                 !
 ! R46   R(41,43)                2.397          -DE/DX =   -0.0001              !
 ! R47   R(41,45)                2.3183         -DE/DX =   -0.0001              !
 ! R48   R(42,49)                2.3389         -DE/DX =   -0.0009              !
 ! R49   R(43,45)                1.3763         -DE/DX =    0.0                 !
 ! R50   R(43,49)                1.4417         -DE/DX =    0.0                 !
 ! R51   R(43,59)                1.5098         -DE/DX =    0.0                 !
 ! R52   R(44,46)                1.3614         -DE/DX =    0.0                 !
 ! R53   R(44,47)                1.0864         -DE/DX =    0.0                 !
 ! R54   R(44,49)                1.4289         -DE/DX =    0.0                 !
 ! R55   R(45,48)                1.4792         -DE/DX =    0.0                 !
 ! R56   R(45,51)                1.5062         -DE/DX =    0.0                 !
 ! R57   R(46,48)                1.4753         -DE/DX =    0.0                 !
 ! R58   R(46,55)                1.4999         -DE/DX =    0.0                 !
 ! R59   R(48,63)                1.2448         -DE/DX =    0.0                 !
 ! R60   R(49,50)                1.0839         -DE/DX =    0.0                 !
 ! R61   R(51,52)                1.0906         -DE/DX =    0.0                 !
 ! R62   R(51,53)                1.0978         -DE/DX =    0.0                 !
 ! R63   R(51,54)                1.0961         -DE/DX =    0.0                 !
 ! R64   R(55,56)                1.0944         -DE/DX =    0.0                 !
 ! R65   R(55,57)                1.0959         -DE/DX =    0.0                 !
 ! R66   R(55,58)                1.0937         -DE/DX =    0.0                 !
 ! R67   R(59,60)                1.0908         -DE/DX =    0.0                 !
 ! R68   R(59,61)                1.0957         -DE/DX =    0.0                 !
 ! R69   R(59,62)                1.0959         -DE/DX =    0.0                 !
 ! A1    A(2,1,6)              120.2963         -DE/DX =    0.0                 !
 ! A2    A(2,1,7)              119.3268         -DE/DX =    0.0                 !
 ! A3    A(6,1,7)              120.3752         -DE/DX =    0.0                 !
 ! A4    A(1,2,3)              121.147          -DE/DX =    0.0                 !
 ! A5    A(1,2,8)              119.7234         -DE/DX =    0.0                 !
 ! A6    A(3,2,8)              119.1294         -DE/DX =    0.0                 !
 ! A7    A(2,3,4)              117.8359         -DE/DX =    0.0                 !
 ! A8    A(2,3,42)             119.603          -DE/DX =    0.0                 !
 ! A9    A(4,3,42)             122.4661         -DE/DX =    0.0                 !
 ! A10   A(3,4,5)              120.8433         -DE/DX =    0.0                 !
 ! A11   A(3,4,9)              120.0488         -DE/DX =    0.0                 !
 ! A12   A(5,4,9)              119.058          -DE/DX =    0.0                 !
 ! A13   A(4,5,6)              120.5349         -DE/DX =    0.0                 !
 ! A14   A(4,5,10)             119.3509         -DE/DX =    0.0                 !
 ! A15   A(6,5,10)             120.1044         -DE/DX =    0.0                 !
 ! A16   A(1,6,5)              119.3183         -DE/DX =    0.0                 !
 ! A17   A(1,6,11)             120.3653         -DE/DX =    0.0                 !
 ! A18   A(5,6,11)             120.3105         -DE/DX =    0.0                 !
 ! A19   A(13,12,14)           118.0871         -DE/DX =    0.0                 !
 ! A20   A(13,12,42)           120.2015         -DE/DX =    0.0                 !
 ! A21   A(14,12,42)           121.7066         -DE/DX =    0.0                 !
 ! A22   A(12,13,15)           120.7164         -DE/DX =    0.0                 !
 ! A23   A(12,13,16)           120.1391         -DE/DX =    0.0                 !
 ! A24   A(15,13,16)           119.1412         -DE/DX =    0.0                 !
 ! A25   A(12,14,17)           121.0382         -DE/DX =    0.0                 !
 ! A26   A(12,14,18)           119.4522         -DE/DX =    0.0                 !
 ! A27   A(17,14,18)           119.5008         -DE/DX =    0.0                 !
 ! A28   A(13,15,19)           120.5234         -DE/DX =    0.0                 !
 ! A29   A(13,15,20)           119.2968         -DE/DX =    0.0                 !
 ! A30   A(19,15,20)           120.1791         -DE/DX =    0.0                 !
 ! A31   A(14,17,19)           120.2571         -DE/DX =    0.0                 !
 ! A32   A(14,17,21)           119.6014         -DE/DX =    0.0                 !
 ! A33   A(19,17,21)           120.1389         -DE/DX =    0.0                 !
 ! A34   A(14,18,50)           100.4508         -DE/DX =   -0.0001              !
 ! A35   A(15,19,17)           119.3772         -DE/DX =    0.0                 !
 ! A36   A(15,19,22)           120.3777         -DE/DX =    0.0                 !
 ! A37   A(17,19,22)           120.2451         -DE/DX =    0.0                 !
 ! A38   A(24,23,25)           122.1506         -DE/DX =    0.0                 !
 ! A39   A(24,23,26)           108.3142         -DE/DX =    0.0                 !
 ! A40   A(24,23,40)           103.2325         -DE/DX =    0.0                 !
 ! A41   A(25,23,26)           109.1659         -DE/DX =    0.0                 !
 ! A42   A(25,23,40)           108.5988         -DE/DX =    0.0                 !
 ! A43   A(26,23,40)           103.7823         -DE/DX =    0.0                 !
 ! A44   A(23,26,27)           119.3401         -DE/DX =    0.0                 !
 ! A45   A(23,26,28)           118.9065         -DE/DX =    0.0                 !
 ! A46   A(27,26,28)           121.7224         -DE/DX =    0.0                 !
 ! A47   A(26,27,29)           118.6506         -DE/DX =    0.0                 !
 ! A48   A(26,27,30)           119.7639         -DE/DX =    0.0                 !
 ! A49   A(29,27,30)           121.5781         -DE/DX =    0.0                 !
 ! A50   A(26,28,31)           118.6663         -DE/DX =    0.0                 !
 ! A51   A(26,28,32)           121.3287         -DE/DX =    0.0                 !
 ! A52   A(31,28,32)           119.9573         -DE/DX =    0.0                 !
 ! A53   A(27,29,33)           121.1151         -DE/DX =    0.0                 !
 ! A54   A(27,29,34)           119.3311         -DE/DX =    0.0                 !
 ! A55   A(33,29,34)           119.5522         -DE/DX =    0.0                 !
 ! A56   A(28,31,33)           121.1672         -DE/DX =    0.0                 !
 ! A57   A(28,31,35)           118.7929         -DE/DX =    0.0                 !
 ! A58   A(33,31,35)           120.0251         -DE/DX =    0.0                 !
 ! A59   A(29,33,31)           118.6726         -DE/DX =    0.0                 !
 ! A60   A(29,33,36)           121.0434         -DE/DX =    0.0                 !
 ! A61   A(31,33,36)           120.2819         -DE/DX =    0.0                 !
 ! A62   A(33,36,37)           110.7448         -DE/DX =    0.0                 !
 ! A63   A(33,36,38)           111.6866         -DE/DX =    0.0                 !
 ! A64   A(33,36,39)           111.1964         -DE/DX =    0.0                 !
 ! A65   A(37,36,38)           107.5908         -DE/DX =    0.0                 !
 ! A66   A(37,36,39)           107.1617         -DE/DX =    0.0                 !
 ! A67   A(38,36,39)           108.2726         -DE/DX =    0.0                 !
 ! A68   A(23,40,41)           108.5286         -DE/DX =    0.0                 !
 ! A69   A(23,40,42)           125.6697         -DE/DX =    0.0                 !
 ! A70   A(41,40,42)           114.9404         -DE/DX =    0.0                 !
 ! A71   A(40,41,43)           113.1641         -DE/DX =   -0.0001              !
 ! A72   A(40,41,45)           129.261          -DE/DX =   -0.0001              !
 ! A73   A(3,42,12)            120.7358         -DE/DX =    0.0                 !
 ! A74   A(3,42,40)            114.8126         -DE/DX =    0.0                 !
 ! A75   A(3,42,49)            106.498          -DE/DX =   -0.0001              !
 ! A76   A(12,42,40)           116.7962         -DE/DX =    0.0                 !
 ! A77   A(12,42,49)            96.8411         -DE/DX =    0.0001              !
 ! A78   A(40,42,49)            94.2127         -DE/DX =    0.0001              !
 ! A79   A(41,43,49)            88.7044         -DE/DX =   -0.0001              !
 ! A80   A(41,43,59)           109.6679         -DE/DX =    0.0001              !
 ! A81   A(45,43,49)           119.5312         -DE/DX =    0.0                 !
 ! A82   A(45,43,59)           120.6287         -DE/DX =    0.0                 !
 ! A83   A(49,43,59)           119.8089         -DE/DX =    0.0                 !
 ! A84   A(46,44,47)           119.846          -DE/DX =    0.0                 !
 ! A85   A(46,44,49)           121.6811         -DE/DX =    0.0                 !
 ! A86   A(47,44,49)           118.2476         -DE/DX =    0.0                 !
 ! A87   A(41,45,48)            90.4431         -DE/DX =    0.0                 !
 ! A88   A(41,45,51)           105.96           -DE/DX =    0.0001              !
 ! A89   A(43,45,48)           120.3482         -DE/DX =    0.0                 !
 ! A90   A(43,45,51)           122.3756         -DE/DX =    0.0                 !
 ! A91   A(48,45,51)           117.2281         -DE/DX =    0.0                 !
 ! A92   A(44,46,48)           119.3451         -DE/DX =    0.0                 !
 ! A93   A(44,46,55)           123.4101         -DE/DX =    0.0                 !
 ! A94   A(48,46,55)           117.2393         -DE/DX =    0.0                 !
 ! A95   A(45,48,46)           117.7634         -DE/DX =    0.0                 !
 ! A96   A(45,48,63)           121.7695         -DE/DX =    0.0                 !
 ! A97   A(46,48,63)           120.4579         -DE/DX =    0.0                 !
 ! A98   A(42,49,43)            99.7955         -DE/DX =    0.0001              !
 ! A99   A(42,49,44)            99.6117         -DE/DX =    0.0                 !
 ! A100  A(42,49,50)            93.812          -DE/DX =    0.0                 !
 ! A101  A(43,49,44)           119.1207         -DE/DX =    0.0                 !
 ! A102  A(43,49,50)           117.5887         -DE/DX =    0.0                 !
 ! A103  A(44,49,50)           117.8975         -DE/DX =    0.0                 !
 ! A104  A(18,50,49)           128.8572         -DE/DX =    0.0001              !
 ! A105  A(45,51,52)           109.6292         -DE/DX =    0.0                 !
 ! A106  A(45,51,53)           111.2564         -DE/DX =    0.0                 !
 ! A107  A(45,51,54)           111.8818         -DE/DX =    0.0                 !
 ! A108  A(52,51,53)           108.3126         -DE/DX =    0.0                 !
 ! A109  A(52,51,54)           108.9034         -DE/DX =    0.0                 !
 ! A110  A(53,51,54)           106.7407         -DE/DX =    0.0                 !
 ! A111  A(46,55,56)           110.7437         -DE/DX =    0.0                 !
 ! A112  A(46,55,57)           110.4711         -DE/DX =    0.0                 !
 ! A113  A(46,55,58)           111.3739         -DE/DX =    0.0                 !
 ! A114  A(56,55,57)           106.041          -DE/DX =    0.0                 !
 ! A115  A(56,55,58)           109.379          -DE/DX =    0.0                 !
 ! A116  A(57,55,58)           108.6693         -DE/DX =    0.0                 !
 ! A117  A(43,59,60)           111.8373         -DE/DX =    0.0                 !
 ! A118  A(43,59,61)           111.6172         -DE/DX =    0.0                 !
 ! A119  A(43,59,62)           110.4704         -DE/DX =    0.0                 !
 ! A120  A(60,59,61)           107.273          -DE/DX =    0.0                 !
 ! A121  A(60,59,62)           108.4709         -DE/DX =    0.0                 !
 ! A122  A(61,59,62)           106.9704         -DE/DX =    0.0                 !
 ! D1    D(6,1,2,3)             -0.4355         -DE/DX =    0.0                 !
 ! D2    D(6,1,2,8)            179.7605         -DE/DX =    0.0                 !
 ! D3    D(7,1,2,3)           -179.9696         -DE/DX =    0.0                 !
 ! D4    D(7,1,2,8)              0.2264         -DE/DX =    0.0                 !
 ! D5    D(2,1,6,5)             -0.7396         -DE/DX =    0.0                 !
 ! D6    D(2,1,6,11)          -179.8538         -DE/DX =    0.0                 !
 ! D7    D(7,1,6,5)            178.7895         -DE/DX =    0.0                 !
 ! D8    D(7,1,6,11)            -0.3246         -DE/DX =    0.0                 !
 ! D9    D(1,2,3,4)              1.6048         -DE/DX =    0.0                 !
 ! D10   D(1,2,3,42)           178.1497         -DE/DX =    0.0                 !
 ! D11   D(8,2,3,4)           -178.59           -DE/DX =    0.0                 !
 ! D12   D(8,2,3,42)            -2.0451         -DE/DX =    0.0                 !
 ! D13   D(2,3,4,5)             -1.6376         -DE/DX =    0.0                 !
 ! D14   D(2,3,4,9)            175.7682         -DE/DX =    0.0                 !
 ! D15   D(42,3,4,5)          -178.0768         -DE/DX =    0.0                 !
 ! D16   D(42,3,4,9)            -0.6711         -DE/DX =    0.0                 !
 ! D17   D(2,3,42,12)          178.9135         -DE/DX =    0.0                 !
 ! D18   D(2,3,42,40)          -32.5757         -DE/DX =    0.0                 !
 ! D19   D(2,3,42,49)           70.2119         -DE/DX =    0.0                 !
 ! D20   D(4,3,42,12)           -4.708          -DE/DX =    0.0                 !
 ! D21   D(4,3,42,40)          143.8028         -DE/DX =    0.0                 !
 ! D22   D(4,3,42,49)         -113.4095         -DE/DX =    0.0                 !
 ! D23   D(3,4,5,6)              0.5092         -DE/DX =    0.0                 !
 ! D24   D(3,4,5,10)           179.3766         -DE/DX =    0.0                 !
 ! D25   D(9,4,5,6)           -176.9219         -DE/DX =    0.0                 !
 ! D26   D(9,4,5,10)             1.9455         -DE/DX =    0.0                 !
 ! D27   D(4,5,6,1)              0.7037         -DE/DX =    0.0                 !
 ! D28   D(4,5,6,11)           179.8183         -DE/DX =    0.0                 !
 ! D29   D(10,5,6,1)          -178.1553         -DE/DX =    0.0                 !
 ! D30   D(10,5,6,11)            0.9594         -DE/DX =    0.0                 !
 ! D31   D(14,12,13,15)          0.0191         -DE/DX =    0.0                 !
 ! D32   D(14,12,13,16)        179.3623         -DE/DX =    0.0                 !
 ! D33   D(42,12,13,15)        179.2357         -DE/DX =    0.0                 !
 ! D34   D(42,12,13,16)         -1.4212         -DE/DX =    0.0                 !
 ! D35   D(13,12,14,17)         -0.1575         -DE/DX =    0.0                 !
 ! D36   D(13,12,14,18)        178.7636         -DE/DX =    0.0001              !
 ! D37   D(42,12,14,17)       -179.3616         -DE/DX =    0.0                 !
 ! D38   D(42,12,14,18)         -0.4405         -DE/DX =    0.0001              !
 ! D39   D(13,12,42,3)         130.4896         -DE/DX =    0.0001              !
 ! D40   D(13,12,42,40)        -17.4267         -DE/DX =    0.0001              !
 ! D41   D(13,12,42,49)       -115.6759         -DE/DX =    0.0                 !
 ! D42   D(14,12,42,3)         -50.3228         -DE/DX =    0.0001              !
 ! D43   D(14,12,42,40)        161.7608         -DE/DX =    0.0002              !
 ! D44   D(14,12,42,49)         63.5116         -DE/DX =    0.0                 !
 ! D45   D(12,13,15,19)         -0.0007         -DE/DX =    0.0                 !
 ! D46   D(12,13,15,20)        179.6919         -DE/DX =    0.0                 !
 ! D47   D(16,13,15,19)       -179.3503         -DE/DX =    0.0                 !
 ! D48   D(16,13,15,20)          0.3423         -DE/DX =    0.0                 !
 ! D49   D(12,14,17,19)          0.2776         -DE/DX =    0.0                 !
 ! D50   D(12,14,17,21)        179.6835         -DE/DX =    0.0                 !
 ! D51   D(18,14,17,19)       -178.6429         -DE/DX =   -0.0001              !
 ! D52   D(18,14,17,21)          0.7629         -DE/DX =    0.0                 !
 ! D53   D(12,14,18,50)        -54.1016         -DE/DX =    0.0001              !
 ! D54   D(17,14,18,50)        124.8362         -DE/DX =    0.0001              !
 ! D55   D(13,15,19,17)          0.1171         -DE/DX =    0.0                 !
 ! D56   D(13,15,19,22)       -179.8513         -DE/DX =    0.0                 !
 ! D57   D(20,15,19,17)       -179.5728         -DE/DX =    0.0                 !
 ! D58   D(20,15,19,22)          0.4588         -DE/DX =    0.0                 !
 ! D59   D(14,17,19,15)         -0.2542         -DE/DX =    0.0                 !
 ! D60   D(14,17,19,22)        179.7142         -DE/DX =    0.0                 !
 ! D61   D(21,17,19,15)       -179.6569         -DE/DX =    0.0                 !
 ! D62   D(21,17,19,22)          0.3116         -DE/DX =    0.0                 !
 ! D63   D(14,18,50,49)         49.3022         -DE/DX =    0.0                 !
 ! D64   D(24,23,26,27)        139.4066         -DE/DX =    0.0                 !
 ! D65   D(24,23,26,28)        -42.5839         -DE/DX =    0.0                 !
 ! D66   D(25,23,26,27)          4.2956         -DE/DX =    0.0                 !
 ! D67   D(25,23,26,28)       -177.6949         -DE/DX =    0.0                 !
 ! D68   D(40,23,26,27)       -111.3576         -DE/DX =    0.0                 !
 ! D69   D(40,23,26,28)         66.6519         -DE/DX =    0.0                 !
 ! D70   D(24,23,40,41)         12.2742         -DE/DX =    0.0                 !
 ! D71   D(24,23,40,42)       -129.7239         -DE/DX =    0.0                 !
 ! D72   D(25,23,40,41)        143.2632         -DE/DX =    0.0                 !
 ! D73   D(25,23,40,42)          1.2651         -DE/DX =    0.0                 !
 ! D74   D(26,23,40,41)       -100.6833         -DE/DX =    0.0                 !
 ! D75   D(26,23,40,42)        117.3185         -DE/DX =    0.0                 !
 ! D76   D(23,26,27,29)        177.9352         -DE/DX =    0.0                 !
 ! D77   D(23,26,27,30)         -1.0891         -DE/DX =    0.0                 !
 ! D78   D(28,26,27,29)         -0.0162         -DE/DX =    0.0                 !
 ! D79   D(28,26,27,30)       -179.0405         -DE/DX =    0.0                 !
 ! D80   D(23,26,28,31)       -177.2908         -DE/DX =    0.0                 !
 ! D81   D(23,26,28,32)          0.194          -DE/DX =    0.0                 !
 ! D82   D(27,26,28,31)          0.6692         -DE/DX =    0.0                 !
 ! D83   D(27,26,28,32)        178.1541         -DE/DX =    0.0                 !
 ! D84   D(26,27,29,33)         -0.4573         -DE/DX =    0.0                 !
 ! D85   D(26,27,29,34)       -179.9978         -DE/DX =    0.0                 !
 ! D86   D(30,27,29,33)        178.5486         -DE/DX =    0.0                 !
 ! D87   D(30,27,29,34)         -0.9919         -DE/DX =    0.0                 !
 ! D88   D(26,28,31,33)         -0.8664         -DE/DX =    0.0                 !
 ! D89   D(26,28,31,35)        177.7336         -DE/DX =    0.0                 !
 ! D90   D(32,28,31,33)       -178.3867         -DE/DX =    0.0                 !
 ! D91   D(32,28,31,35)          0.2133         -DE/DX =    0.0                 !
 ! D92   D(27,29,33,31)          0.2644         -DE/DX =    0.0                 !
 ! D93   D(27,29,33,36)        179.7365         -DE/DX =    0.0                 !
 ! D94   D(34,29,33,31)        179.8039         -DE/DX =    0.0                 !
 ! D95   D(34,29,33,36)         -0.724          -DE/DX =    0.0                 !
 ! D96   D(28,31,33,29)          0.4115         -DE/DX =    0.0                 !
 ! D97   D(28,31,33,36)       -179.0647         -DE/DX =    0.0                 !
 ! D98   D(35,31,33,29)       -178.1714         -DE/DX =    0.0                 !
 ! D99   D(35,31,33,36)          2.3524         -DE/DX =    0.0                 !
 ! D100  D(29,33,36,37)       -101.7735         -DE/DX =    0.0                 !
 ! D101  D(29,33,36,38)         18.1214         -DE/DX =    0.0                 !
 ! D102  D(29,33,36,39)        139.194          -DE/DX =    0.0                 !
 ! D103  D(31,33,36,37)         77.6901         -DE/DX =    0.0                 !
 ! D104  D(31,33,36,38)       -162.415          -DE/DX =    0.0                 !
 ! D105  D(31,33,36,39)        -41.3423         -DE/DX =    0.0                 !
 ! D106  D(23,40,41,43)        173.43           -DE/DX =    0.0                 !
 ! D107  D(23,40,41,45)        138.1592         -DE/DX =    0.0                 !
 ! D108  D(42,40,41,43)        -40.0482         -DE/DX =    0.0                 !
 ! D109  D(42,40,41,45)        -75.319          -DE/DX =    0.0                 !
 ! D110  D(23,40,42,3)         -57.3143         -DE/DX =    0.0                 !
 ! D111  D(23,40,42,12)         92.4884         -DE/DX =    0.0                 !
 ! D112  D(23,40,42,49)       -167.6651         -DE/DX =    0.0001              !
 ! D113  D(41,40,42,3)         162.7623         -DE/DX =    0.0                 !
 ! D114  D(41,40,42,12)        -47.435          -DE/DX =    0.0                 !
 ! D115  D(41,40,42,49)         52.4115         -DE/DX =    0.0001              !
 ! D116  D(40,41,43,49)         -4.4718         -DE/DX =    0.0001              !
 ! D117  D(40,41,43,59)        116.8576         -DE/DX =    0.0001              !
 ! D118  D(40,41,45,48)        -49.0263         -DE/DX =    0.0                 !
 ! D119  D(40,41,45,51)       -167.5879         -DE/DX =    0.0                 !
 ! D120  D(3,42,49,43)        -168.699          -DE/DX =    0.0                 !
 ! D121  D(3,42,49,44)         -46.6854         -DE/DX =    0.0                 !
 ! D122  D(3,42,49,50)          72.4509         -DE/DX =    0.0                 !
 ! D123  D(12,42,49,43)         66.3847         -DE/DX =    0.0                 !
 ! D124  D(12,42,49,44)       -171.6018         -DE/DX =    0.0                 !
 ! D125  D(12,42,49,50)        -52.4654         -DE/DX =    0.0                 !
 ! D126  D(40,42,49,43)        -51.2685         -DE/DX =    0.0                 !
 ! D127  D(40,42,49,44)         70.7451         -DE/DX =    0.0                 !
 ! D128  D(40,42,49,50)       -170.1185         -DE/DX =    0.0                 !
 ! D129  D(49,43,45,48)          5.8343         -DE/DX =    0.0                 !
 ! D130  D(49,43,45,51)       -176.7599         -DE/DX =    0.0                 !
 ! D131  D(59,43,45,48)       -176.2021         -DE/DX =    0.0                 !
 ! D132  D(59,43,45,51)          1.2037         -DE/DX =    0.0                 !
 ! D133  D(41,43,49,42)         24.5847         -DE/DX =    0.0                 !
 ! D134  D(41,43,49,44)        -82.2814         -DE/DX =    0.0                 !
 ! D135  D(41,43,49,50)        124.1597         -DE/DX =    0.0001              !
 ! D136  D(45,43,49,42)         90.5389         -DE/DX =    0.0                 !
 ! D137  D(45,43,49,44)        -16.3272         -DE/DX =    0.0                 !
 ! D138  D(45,43,49,50)       -169.8862         -DE/DX =    0.0001              !
 ! D139  D(59,43,49,42)        -87.4417         -DE/DX =    0.0                 !
 ! D140  D(59,43,49,44)        165.6923         -DE/DX =    0.0                 !
 ! D141  D(59,43,49,50)         12.1333         -DE/DX =    0.0001              !
 ! D142  D(41,43,59,60)       -104.6314         -DE/DX =    0.0                 !
 ! D143  D(41,43,59,61)         15.5591         -DE/DX =    0.0                 !
 ! D144  D(41,43,59,62)        134.4439         -DE/DX =    0.0                 !
 ! D145  D(45,43,59,60)        177.6114         -DE/DX =    0.0                 !
 ! D146  D(45,43,59,61)        -62.1981         -DE/DX =    0.0                 !
 ! D147  D(45,43,59,62)         56.6867         -DE/DX =    0.0                 !
 ! D148  D(49,43,59,60)         -4.4306         -DE/DX =    0.0                 !
 ! D149  D(49,43,59,61)        115.7598         -DE/DX =    0.0                 !
 ! D150  D(49,43,59,62)       -125.3553         -DE/DX =    0.0                 !
 ! D151  D(47,44,46,48)       -178.8711         -DE/DX =    0.0                 !
 ! D152  D(47,44,46,55)          0.2538         -DE/DX =    0.0                 !
 ! D153  D(49,44,46,48)         -4.4205         -DE/DX =    0.0                 !
 ! D154  D(49,44,46,55)        174.7043         -DE/DX =    0.0                 !
 ! D155  D(46,44,49,42)        -91.1703         -DE/DX =   -0.0001              !
 ! D156  D(46,44,49,43)         15.799          -DE/DX =    0.0                 !
 ! D157  D(46,44,49,50)        169.2771         -DE/DX =   -0.0001              !
 ! D158  D(47,44,49,42)         83.3658         -DE/DX =    0.0                 !
 ! D159  D(47,44,49,43)       -169.6648         -DE/DX =    0.0                 !
 ! D160  D(47,44,49,50)        -16.1867         -DE/DX =    0.0                 !
 ! D161  D(41,45,48,46)         79.4902         -DE/DX =   -0.0001              !
 ! D162  D(41,45,48,63)       -101.6131         -DE/DX =    0.0                 !
 ! D163  D(43,45,48,46)          5.2797         -DE/DX =    0.0                 !
 ! D164  D(43,45,48,63)       -175.8235         -DE/DX =    0.0                 !
 ! D165  D(51,45,48,46)       -172.2564         -DE/DX =    0.0                 !
 ! D166  D(51,45,48,63)          6.6404         -DE/DX =    0.0                 !
 ! D167  D(41,45,51,52)         90.5706         -DE/DX =    0.0                 !
 ! D168  D(41,45,51,53)       -149.6487         -DE/DX =    0.0                 !
 ! D169  D(41,45,51,54)        -30.3542         -DE/DX =    0.0                 !
 ! D170  D(43,45,51,52)        174.1017         -DE/DX =    0.0                 !
 ! D171  D(43,45,51,53)        -66.1176         -DE/DX =    0.0                 !
 ! D172  D(43,45,51,54)         53.1769         -DE/DX =    0.0                 !
 ! D173  D(48,45,51,52)         -8.416          -DE/DX =    0.0                 !
 ! D174  D(48,45,51,53)        111.3647         -DE/DX =    0.0                 !
 ! D175  D(48,45,51,54)       -129.3408         -DE/DX =    0.0                 !
 ! D176  D(44,46,48,45)         -6.0707         -DE/DX =    0.0                 !
 ! D177  D(44,46,48,63)        175.0174         -DE/DX =    0.0                 !
 ! D178  D(55,46,48,45)        174.7509         -DE/DX =    0.0                 !
 ! D179  D(55,46,48,63)         -4.161          -DE/DX =    0.0                 !
 ! D180  D(44,46,55,56)        130.5872         -DE/DX =    0.0                 !
 ! D181  D(44,46,55,57)       -112.2329         -DE/DX =    0.0                 !
 ! D182  D(44,46,55,58)          8.6324         -DE/DX =    0.0                 !
 ! D183  D(48,46,55,56)        -50.2708         -DE/DX =    0.0                 !
 ! D184  D(48,46,55,57)         66.909          -DE/DX =    0.0                 !
 ! D185  D(48,46,55,58)       -172.2256         -DE/DX =    0.0                 !
 ! D186  D(42,49,50,18)          8.5535         -DE/DX =    0.0                 !
 ! D187  D(43,49,50,18)        -94.5789         -DE/DX =   -0.0001              !
 ! D188  D(44,49,50,18)        111.5341         -DE/DX =    0.0                 !
 --------------------------------------------------------------------------------
 GradGradGradGradGradGradGradGradGradGradGradGradGradGradGradGradGradGrad


 ----------------------------------------------------------------------

 Electric dipole moment (input orientation):
 (Debye = 10**-18 statcoulomb cm , SI units = C m)
                  (au)            (Debye)         (10**-30 SI)
   Tot        0.171868D+01      0.436845D+01      0.145716D+02
   x         -0.140029D+01     -0.355918D+01     -0.118721D+02
   y         -0.754849D+00     -0.191863D+01     -0.639988D+01
   z          0.650578D+00      0.165360D+01      0.551583D+01

 Dipole polarizability, Alpha (input orientation).
 (esu units = cm**3 , SI units = C**2 m**2 J**-1)
 Alpha(0;0):
               (au)            (10**-24 esu)      (10**-40 SI)
   iso        0.366038D+03      0.542412D+02      0.603514D+02
   aniso      0.203689D+03      0.301836D+02      0.335838D+02
   xx         0.367132D+03      0.544034D+02      0.605320D+02
   yx        -0.204377D+02     -0.302856D+01     -0.336973D+01
   yy         0.463448D+03      0.686759D+02      0.764123D+02
   zx         0.593260D+02      0.879121D+01      0.978154D+01
   zy         0.171994D+02      0.254868D+01      0.283579D+01
   zz         0.267532D+03      0.396441D+02      0.441101D+02

 ----------------------------------------------------------------------

 Dipole orientation:
     6         -5.37344757          5.24699614          3.85493893
     6         -3.49392439          4.95847976          2.04507708
     6         -1.95676288          2.78125898          1.98852135
     6         -2.43143430          0.87825989          3.78644836
     6         -4.31683963          1.17453369          5.59956568
     6         -5.78900071          3.36121701          5.65636656
     1         -6.52502651          6.94564145          3.84620398
     1         -3.19252921          6.42445888          0.65579781
     1         -1.38029097         -0.87514645          3.72370325
     1         -4.65682778         -0.33056656          6.95232474
     1         -7.26058039          3.58255282          7.06930081
     6          1.65327512          0.24979416         -0.09434529
     6          1.95778235         -1.11192947         -2.35581387
     6          2.99962384         -0.56839842          2.05301026
     6          3.54919288         -3.21200291         -2.45969352
     1          0.93683943         -0.54919525         -4.04114692
     6          4.57927653         -2.66470770          1.94389122
     1          2.82534258          0.47410673          3.80984597
     6          4.86765253         -3.99850256         -0.31947036
     1          3.74467498         -4.23725051         -4.22631689
     1          5.60345821         -3.25073728          3.62292831
     1          6.10810270         -5.63027234         -0.40649328
    16         -3.31561918          2.87755490         -4.09164804
     8         -2.28750035          2.39316337         -6.62246809
     8         -4.79965800          0.99208262         -2.72195530
     6         -5.02621840          5.78049858         -4.18112950
     6         -7.31291217          5.97162985         -2.88739041
     6         -3.99471156          7.82832187         -5.48388585
     6         -8.58646559          8.27755423         -2.90727697
     1         -8.04444143          4.35113553         -1.87075950
     6         -5.28393936         10.11814192         -5.45721568
     1         -2.19013522          7.68254481         -6.43836972
     6         -7.59522776         10.37769241         -4.18104860
     1        -10.37043542          8.44988983         -1.90569667
     1         -4.45046617         11.73256860         -6.41013312
     6         -8.98164480         12.86892065         -4.20992110
     1         -9.96278969         13.14206218         -6.01471152
     1        -10.39672776         12.97264873         -2.70793236
     1         -7.67437837         14.45492385         -3.97985491
     7         -0.67252894          3.58989387         -2.33859740
     1          0.80282838          3.87131549         -3.54295516
     6         -0.02454716          2.50525029         -0.01611785
     6          4.54500019          5.34856408         -1.46178351
     6          1.58644310          7.64035353          1.34317525
     6          3.93032053          6.93701775         -3.42731271
     6          0.93888129          9.28165260         -0.52899006
     1          0.78894583          7.86663069          3.22135446
     6          1.99739235          8.92683369         -3.08358438
     6          3.12791941          5.47634711          0.86151396
     1          3.85036243          4.43675235          2.47168440
     6          5.23937937          6.81525346         -5.95188009
     1          4.31885620          8.10272211         -7.27187028
     1          7.23412393          7.36210234         -5.79189843
     1          5.20693216          4.90286881         -6.74682282
     6         -0.84728976         11.45032134         -0.15451952
     1         -0.03722838         13.20291218         -0.89587498
     1         -2.59922674         11.13684967         -1.21343642
     1         -1.31727820         11.70289427          1.84213742
     6          6.62802230          3.42001002         -1.74834885
     1          6.93955405          2.36321794         -0.00608663
     1          6.19421978          2.04357737         -3.23308430
     1          8.40289404          4.34469222         -2.28116529
     8          1.29879526         10.29563630         -4.86442069

 Electric dipole moment (dipole orientation):
 (Debye = 10**-18 statcoulomb cm , SI units = C m)
                  (au)            (Debye)         (10**-30 SI)
   Tot        0.171868D+01      0.436845D+01      0.145716D+02
   x          0.000000D+00      0.000000D+00      0.000000D+00
   y          0.000000D+00      0.000000D+00      0.000000D+00
   z          0.171868D+01      0.436845D+01      0.145716D+02

 Dipole polarizability, Alpha (dipole orientation).
 (esu units = cm**3 , SI units = C**2 m**2 J**-1)
 Alpha(0;0):
               (au)            (10**-24 esu)      (10**-40 SI)
   iso        0.366038D+03      0.542412D+02      0.603514D+02
   aniso      0.203689D+03      0.301836D+02      0.335838D+02
   xx         0.355853D+03      0.527320D+02      0.586723D+02
   yx        -0.565811D+02     -0.838445D+01     -0.932896D+01
   yy         0.427758D+03      0.633873D+02      0.705278D+02
   zx        -0.549883D+02     -0.814842D+01     -0.906635D+01
   zy        -0.657270D+02     -0.973974D+01     -0.108369D+02
   zz         0.314501D+03      0.466042D+02      0.518542D+02

 ----------------------------------------------------------------------
 Unable to Open any file for archive entry.
 1\1\GINC-EXP-1-30\Freq\UB3LYP\6-31G(d,p)\C29H29N1O3S1\JCUZICK\17-Apr-2
 026\0\\#N Geom=AllCheck Guess=TCheck SCRF=Check GenChk UB3LYP/6-31G(d,
 p) Freq\\Radical-Radical Coupling (TS-B)\\0,1\C,-3.857044,2.230226,-0.
 325062\C,-2.521433,2.261377,0.055694\C,-1.776243,1.072455,0.201084\C,-
 2.420239,-0.14632,-0.085711\C,-3.759933,-0.173889,-0.466548\C,-4.48869
 5,1.010354,-0.581665\H,-4.402557,3.163544,-0.428517\H,-2.041133,3.2100
 77,0.248068\H,-1.863941,-1.074152,-0.052604\H,-4.229702,-1.126605,-0.6
 91969\H,-5.532021,0.984843,-0.881661\C,0.459956,-0.091484,0.75196\C,1.
 705574,-0.22747,0.113762\C,0.015907,-1.147887,1.572411\C,2.475454,-1.3
 77733,0.290992\H,2.074793,0.560586,-0.533216\C,0.784303,-2.293604,1.74
 4397\H,-0.932563,-1.05779,2.09148\C,2.022475,-2.414223,1.105356\H,3.43
 159,-1.460613,-0.216886\H,0.421887,-3.091244,2.386096\H,2.62447,-3.307
 056,1.243489\S,0.459152,2.71607,-1.580328\O,1.898916,2.942587,-1.75659
 2\O,-0.27955,1.743451,-2.384014\C,-0.370347,4.293055,-1.661078\C,-1.58
 1768,4.393467,-2.343403\C,0.193038,5.386169,-1.001358\C,-2.239356,5.62
 2522,-2.360539\H,-1.998189,3.520137,-2.831785\C,-0.486711,6.599227,-1.
 019669\H,1.119687,5.293776,-0.448398\C,-1.706702,6.738241,-1.700216\H,
 -3.184305,5.713226,-2.889008\H,-0.068957,7.440984,-0.475982\C,-2.41683
 5,8.069225,-1.724745\H,-1.945414,8.747776,-2.445799\H,-3.466901,7.9617
 29,-2.009878\H,-2.375225,8.558019,-0.746425\N,0.33064,2.269774,0.07594
 4\H,1.216015,2.475109,0.536198\C,-0.343916,1.14733,0.568449\C,1.142508
 ,2.149711,2.909838\C,-1.193355,2.947251,2.728784\C,1.603098,3.413918,2
 .620286\C,-0.789299,4.218327,2.456039\H,-2.253007,2.723264,2.813758\C,
 0.651255,4.505167,2.318231\C,-0.265514,1.862552,2.793952\H,-0.61872,0.
 915935,3.186347\C,3.067433,3.765433,2.650681\H,3.207135,4.784631,2.288
 621\H,3.470618,3.703132,3.669849\H,3.663959,3.084266,2.032986\C,-1.738
 7,5.363673,2.264984\H,-1.437562,6.222358,2.873067\H,-1.719754,5.707765
 ,1.224675\H,-2.76319,5.07913,2.521006\C,2.10247,1.052441,3.302294\H,1.
 581938,0.123741,3.539989\H,2.812661,0.830652,2.497947\H,2.692127,1.353
 323,4.175704\O,1.039364,5.638006,1.978444\\Version=ES64L-G16RevC.01\HF
 =-1801.1941742\S2=0.\S2-1=0.\S2A=0.\RMSD=1.484e-09\RMSF=1.314e-04\Zero
 Point=0.5123754\Thermal=0.5437924\ETot=-1800.6503818\HTot=-1800.649437
 6\GTot=-1800.7445455\Dipole=-1.4002883,-0.7548491,0.6505781\DipoleDeri
 v=-0.0769848,-0.1509245,-0.0115643,-0.1747763,-0.0208092,-0.0683803,0.
 0245234,-0.0020745,-0.0934654,-0.0353012,0.0766768,-0.0167117,-0.07462
 05,-0.0324159,-0.0571608,0.0247843,0.0949675,-0.0718918,-0.2071928,0.0
 816637,-0.0090309,0.0556965,-0.1573889,0.0369711,-0.0715863,-0.0354146
 ,0.00414,0.0275569,-0.1634981,-0.01151,0.0721713,0.0746175,0.0817501,-
 0.0361752,-0.0105725,-0.0939375,-0.095352,0.1374085,0.0131747,0.205379
 2,0.1183411,0.117169,0.0410663,0.0712647,-0.0699904,0.0613531,-0.05079
 21,-0.0119299,-0.00215,0.0308537,0.0063616,0.0494929,-0.005039,-0.0830
 436,0.0233789,0.0502951,-0.0313248,0.094123,-0.0453831,0.019926,-0.031
 5768,-0.0055768,0.0852041,0.0501387,-0.0193508,-0.0147116,-0.0345657,-
 0.0146613,-0.0063493,-0.0269521,-0.0979805,0.0830092,0.0735256,0.05376
 84,0.0149893,0.0604408,-0.0225753,0.0075505,0.0373225,0.0056295,0.1029
 692,0.0130351,-0.0648063,-0.035577,-0.0913638,-0.0776188,-0.0451875,-0
 .0309716,-0.0358514,0.0901956,-0.1070158,-0.015791,-0.0582301,0.001817
 ,0.06427,-0.0002729,-0.0665169,-0.0105132,0.0795781,-0.1068136,-0.1070
 015,-0.0218923,-0.0439915,0.0343043,0.0749454,-0.1005568,-0.1515685,-0
 .3563498,-0.0654188,0.0047961,0.0029254,0.0370179,-0.1708734,-0.127530
 9,-0.0027559,-0.0210117,-0.0192572,0.0202736,0.070948,-0.0361406,-0.03
 84928,-0.1031099,0.0013017,-0.0542119,0.0030747,-0.0517264,0.1329632,-
 0.0716833,-0.1112245,-0.0060278,-0.0426553,0.0222736,-0.130681,0.08004
 03,-0.0096808,0.0786052,-0.0462507,0.0177638,-0.0456221,0.0637141,0.03
 46469,0.0069852,0.0277355,0.0657636,-0.062379,0.1369658,-0.0450843,0.0
 358665,0.0796962,-0.0929641,-0.0416504,-0.1583887,-0.0109539,-0.032270
 3,0.0081941,0.047804,0.0218114,0.0692734,-0.0264985,0.0767372,-0.05029
 74,0.0509561,-0.0145609,-0.0606685,0.0191286,-0.0739208,-0.0347563,-0.
 056512,0.005072,0.0064642,-0.0743628,-0.0543233,0.0599631,0.0818541,0.
 0122306,0.052482,0.0055997,0.0752498,-0.0010048,0.0536782,0.0509985,-0
 .0391115,0.0457107,-0.017377,-0.0473577,0.0729468,0.037411,0.1055899,0
 .0308539,0.0179848,0.0915568,0.0016765,0.0887646,-0.0654729,0.0258977,
 -0.0026394,0.0280332,0.0862842,1.6866858,-0.2811344,0.144314,-0.326039
 3,2.0463289,-0.7675301,-0.0939201,-0.5612083,2.5725436,-0.9535538,0.22
 93493,0.2921412,0.0667531,-0.6364761,0.3283663,0.0476388,0.1215202,-0.
 7779226,-0.513765,-0.0580248,-0.2000165,0.0284688,-0.8233042,-0.100835
 6,0.0129432,-0.0398144,-0.8738371,-0.2140313,0.1280795,0.0171165,0.085
 339,-0.3680886,0.0208703,0.0661095,0.0036553,-0.2099573,0.0207813,-0.1
 370673,0.0298511,0.0751072,-0.0093469,0.1070587,0.0293464,-0.0412494,-
 0.0224692,-0.0322107,0.0482692,-0.0124372,-0.079779,0.0117996,-0.00338
 22,-0.0055328,0.0986389,-0.0526788,0.0631705,0.0040478,0.1243982,0.033
 6817,-0.2772152,0.0094575,0.1057008,-0.0139513,-0.0437399,0.0745588,-0
 .0104113,-0.0088209,-0.0295912,0.0441332,-0.050807,-0.0017156,-0.05092
 93,0.1233795,-0.1248424,0.1661493,0.0018154,0.1596071,-0.0773579,0.100
 0662,0.0402803,0.1711898,-0.0758288,0.0536855,0.061178,-0.0285667,0.03
 09766,0.0657101,-0.0088133,-0.0458234,-0.1065301,0.1216463,0.0631679,-
 0.2052074,0.0363634,-0.1968315,0.4451848,-0.0513008,0.0182871,-0.06238
 97,0.0006053,-0.0518941,0.051844,-0.0978287,0.0279177,0.0501089,0.0113
 072,-0.0629785,-0.0012537,0.0563115,0.0581638,-0.0090317,-0.0328478,-0
 .0184801,0.0117616,-0.0453748,-0.0300679,-0.0988744,0.078939,0.1324044
 ,-0.0477202,0.024711,0.0739,-0.0515682,0.0056405,-0.017555,0.0502168,0
 .0833104,0.009456,0.0032519,0.0506696,0.0160152,-0.0969067,0.0860951,0
 .0391283,0.0925623,-0.0013021,-0.1093473,0.0577811,-0.04937,-0.0480066
 ,0.0238774,-0.0170424,-0.0462772,-0.0060175,0.0536974,0.036622,0.03509
 7,-0.0390857,0.0301055,0.0068896,-0.0331971,0.0082661,-0.0978824,-0.06
 25237,-0.5054102,-0.0153001,0.1206344,0.1811407,-0.6253575,0.7830601,-
 0.0769544,0.3962627,-1.3898386,0.1256517,-0.0463973,0.0522974,-0.04507
 86,0.0947283,0.16533,0.0152728,0.0067671,0.1972694,0.6844167,0.0630428
 ,-0.2068117,-0.1252554,0.6817284,-0.5217433,0.3829644,0.4199701,1.0017
 276,0.2063989,0.2332044,0.5497295,-0.0444637,0.3501182,0.0159606,0.031
 0656,-0.0715345,-0.1113706,0.0119398,-0.1327687,-0.2688693,0.1799886,0
 .2635944,0.2735507,0.0046247,-0.0070126,-0.2252218,0.2389775,0.4953814
 ,0.2087569,-0.0629651,-0.6414891,-0.191519,0.0626591,0.1742842,-0.0506
 723,-0.2658949,-0.7473408,-0.2842493,-0.1700211,0.0174706,-0.0606961,0
 .0259609,-0.032408,-0.0325983,-0.0883097,0.0151665,0.058575,-0.003781,
 0.0557838,0.0226563,-0.0041645,0.001938,0.1032405,0.4303977,0.4145279,
 0.1035004,0.2890614,1.4990078,0.1432034,-0.0819391,-0.3855441,0.134987
 6,-0.1337823,-0.0035741,-0.1397024,-0.0157211,-0.1397455,-0.0934732,-0
 .1653091,-0.3909758,-0.3316529,0.0160225,-0.014324,0.0075655,-0.017433
 6,-0.045836,0.0594772,0.0002056,0.0888708,0.0267025,-0.0578923,-0.0640
 627,0.0112612,0.0743198,0.0674305,0.0511293,-0.054162,-0.0114456,0.093
 8532,0.1291047,0.0385539,0.0246243,-0.0864102,-0.0316423,0.0076793,0.0
 488918,0.0470625,0.0714754,-0.0603207,-0.0534899,-0.0837268,-0.0032722
 ,0.0600889,0.0253736,-0.1036594,-0.0086942,-0.1115115,-0.059754,-0.019
 325,-0.0147264,0.0625437,-0.0117152,-0.07798,0.0732762,-0.0471134,0.01
 53946,0.0930788,-0.0050665,-0.0560747,0.0746079,-0.0513962,0.0176134,-
 0.0392776,0.1185448,0.1012248,0.0383568,-0.0167077,-0.0371434,0.015383
 9,-0.0732504,-0.0833955,-0.0039066,-0.0809288,0.0211856,0.0040682,0.08
 414,-0.0114865,0.0332317,-0.0181621,-0.010162,-0.0212884,0.0256527,-0.
 0325211,-0.1107825,0.0460842,0.0708471,-0.0645782,0.0210746,0.030532,0
 .024177,0.0029007,0.0284656,-0.0090513,0.1268066,-0.0214502,0.0166161,
 0.0362063,0.0018195,0.0017346,0.0319696,0.0760453,0.0008499,-0.0698058
 ,0.035994,-0.0071095,-0.0465884,0.0683164,0.0076225,0.0170523,0.072685
 1,-0.0079872,0.0356968,0.024988,0.0499245,0.013584,0.0452126,0.0958936
 ,0.0101256,-0.0178921,-0.0023914,0.0122945,-0.1093725,-0.0127844,0.019
 3719,-0.0444375,-0.1037663,-0.0081068,-0.0542253,-0.5689391,-0.3955445
 ,-0.1176623,-0.3294992,-1.6130094,-0.2445704,0.0338782,0.4071742,-0.35
 48988\Polar=367.1323877,-20.4377483,463.4481512,59.326039,17.1993779,2
 67.531983\Quadrupole=6.5311614,2.6308023,-9.1619638,-16.2915546,5.4895
 34,-9.4214254\PG=C01 [X(C29H29N1O3S1)]\NImag=1\\0.65417320,-0.03984802
 ,0.72108786,0.14720349,0.02385805,0.17256244,-0.33197125,0.02911646,-0
 .07500403,0.66889543,-0.03427648,-0.12832639,-0.01446743,0.03890532,0.
 70569877,-0.07969474,0.00350617,-0.08095279,0.15256299,0.04380972,0.18
 731781,-0.03268861,0.02129603,-0.01039011,-0.15557399,0.09608581,-0.01
 661537,0.57808741,0.06454391,0.03411611,0.02091727,0.05018957,-0.25677
 709,0.00559093,0.00326607,0.66958596,-0.00677959,0.00771935,0.00482690
 ,-0.02233791,0.01840857,-0.06897303,0.10768549,0.02267001,0.19115281,-
 0.04417879,-0.02699150,-0.01264508,0.05553719,-0.01388365,0.01107232,-
 0.14510085,-0.04192482,-0.02808132,0.66296775,-0.02469576,-0.01715163,
 -0.00781742,0.02119741,-0.05343281,0.00029815,-0.08673290,-0.26845260,
 -0.04054567,-0.05807320,0.70236671,-0.01323990,-0.00820914,-0.01057843
 ,0.01503885,-0.00921980,0.01075363,-0.03449822,-0.03204668,-0.07506428
 ,0.13946156,0.04399554,0.17815319,0.06080089,0.02625001,0.01755399,-0.
 04857493,0.02424038,-0.00953840,-0.02516210,-0.07004746,-0.01286604,-0
 .32278399,0.02924821,-0.07179129,0.64377139,-0.01901679,-0.05763382,-0
 .00996520,0.02620635,-0.01488867,0.00656451,-0.02552183,0.02910449,-0.
 00651165,-0.03573789,-0.12771773,-0.01759840,0.01339240,0.72456219,0.0
 1429514,0.00283162,0.01167985,-0.00997011,0.00634029,-0.00808913,-0.01
 193216,-0.01748120,0.00200044,-0.07727874,0.00133205,-0.08198085,0.148
 28101,0.05696266,0.17692653,-0.16559066,-0.11272760,-0.03732881,-0.021
 90841,-0.03042106,-0.01025011,0.00278175,0.00321630,0.00282593,-0.0303
 5767,0.02561850,-0.00716501,-0.18086610,0.12773346,-0.02465853,0.70051
 915,-0.04759423,-0.28766094,-0.02703567,-0.07647417,0.02958360,-0.0194
 7416,0.00265994,-0.06280004,-0.00235855,0.07306338,0.03416700,0.023064
 58,0.06239536,-0.28168245,-0.00110970,-0.00959427,0.66330624,-0.032800
 91,-0.04614782,-0.07212636,-0.01352248,-0.00713433,0.00207797,0.002619
 13,-0.00308756,-0.00655752,-0.00477434,0.00977437,0.00628285,-0.030449
 00,0.01912543,-0.06759291,0.16029564,0.03453081,0.17861280,-0.12784789
 ,0.12014321,-0.01953060,-0.01116126,0.02769592,-0.00224531,-0.00407103
 ,-0.00156971,-0.00353882,-0.00083809,-0.00085801,-0.00014875,-0.000347
 86,-0.00275840,-0.00224247,0.01117891,-0.01369160,0.00171650,0.1321488
 7,0.12065777,-0.26586555,0.02151705,-0.00214731,0.00429916,-0.00052229
 ,-0.00071046,0.00158351,-0.00050486,-0.00089444,0.00021385,-0.00019213
 ,-0.00392627,-0.00304722,-0.00171238,0.01658721,-0.01805498,0.00352543
 ,-0.13003431,0.28027716,-0.01941139,0.02178567,-0.04035623,-0.00455037
 ,0.00801081,0.00180941,-0.00345754,-0.00126324,0.00668154,0.00011939,-
 0.00008966,-0.00043740,-0.00221499,-0.00138598,0.00605990,0.00347644,-
 0.00520416,0.00320093,0.02332934,-0.02266567,0.03101033,-0.00877673,-0
 .02750868,-0.00540994,-0.11397938,-0.11313069,-0.02779666,0.01172585,0
 .01462356,0.00304706,-0.00146273,0.00327668,-0.00195777,-0.00059780,0.
 00078664,0.00005488,-0.00442260,0.00149604,-0.00336167,0.00033603,0.00
 004171,0.00134895,0.12149468,0.00227413,0.00485487,0.00059246,-0.11204
 025,-0.28596041,-0.04634647,-0.01251484,-0.01860269,-0.00511711,0.0041
 0712,-0.00262356,0.00079730,0.00060416,0.00033934,0.00021693,0.0008824
 8,0.00139751,-0.00006014,-0.00020223,0.00075853,0.00022600,0.12167074,
 0.30234363,-0.00298715,-0.00715744,0.00235487,-0.02846059,-0.04760658,
 -0.04565083,0.00174540,0.00295969,0.00396762,-0.00187029,0.00067959,0.
 00506909,-0.00022869,0.00024848,-0.00078010,-0.00324137,-0.00032273,0.
 00650281,0.00125281,0.00032724,-0.00387656,0.03253751,0.05106360,0.042
 52600,-0.00062826,-0.00086619,-0.00012710,-0.00079619,-0.00297116,-0.0
 0195460,0.01121565,-0.01189772,0.00094003,-0.13200479,0.12712384,-0.00
 916393,-0.01078058,0.02705937,-0.00099451,-0.00428138,-0.00133459,-0.0
 0334052,0.00000312,0.00008069,0.00032589,0.00053363,-0.00076725,0.0000
 3805,0.14125975,-0.00075967,0.00017491,-0.00017449,-0.00377867,-0.0030
 2168,-0.00206559,0.01506157,-0.01855605,0.00166841,0.12539195,-0.27114
 199,0.00474275,-0.00263998,0.00508016,-0.00066240,-0.00065894,0.001577
 21,-0.00098808,0.00009642,0.00000325,0.00017727,0.00097333,-0.00092308
 ,0.00020213,-0.13633089,0.28498313,-0.00002994,-0.00017344,-0.00068093
 ,-0.00226504,-0.00144251,0.00523265,0.00468867,-0.00443854,0.00355142,
 -0.00861441,0.00441800,-0.03814236,-0.00486932,0.00772088,0.00330298,-
 0.00353784,-0.00097668,0.00638558,0.00032310,0.00007136,-0.00102970,0.
 00010612,-0.00034421,0.00055530,0.01617563,-0.00551420,0.03062750,-0.0
 0082332,0.00323885,-0.00209017,-0.00093205,0.00076516,0.00003162,-0.00
 461269,0.00156557,-0.00336365,-0.00873617,-0.02803099,-0.00615366,-0.1
 1017289,-0.10491586,-0.03106703,0.01134634,0.01567214,0.00394136,0.000
 49231,0.00088888,0.00006569,0.00001514,-0.00011861,0.00029044,0.000316
 90,-0.00001482,0.00123512,0.11288457,0.00438201,-0.00269440,0.00036205
 ,0.00080068,0.00028005,0.00031198,0.00057934,0.00173779,-0.00033325,0.
 00197318,0.00318943,0.00064509,-0.10542154,-0.27472914,-0.05296088,-0.
 01440597,-0.01832957,-0.00614611,-0.00076762,-0.00103566,-0.00027254,-
 0.00012376,0.00000523,0.00006532,-0.00031890,0.00083555,0.00038188,0.1
 1281393,0.29001539,-0.00212848,0.00001021,0.00629305,0.00028315,0.0002
 8411,-0.00057010,-0.00285768,0.00033634,0.00655996,-0.00381086,-0.0083
 7016,0.00049009,-0.03035188,-0.05372819,-0.04961280,0.00092345,0.00359
 760,0.00323069,-0.00004238,0.00013903,0.00030152,0.00032162,0.00001304
 ,-0.00092948,0.00121094,0.00063967,-0.00375984,0.03591127,0.05738715,0
 .04137062,-0.00908040,0.00271263,-0.00333424,0.00136072,-0.00279217,-0
 .00178829,0.00057652,0.00010944,0.00036115,0.00093300,0.00334249,-0.00
 152807,-0.01105533,-0.00348419,-0.00436334,-0.31610179,-0.00584953,-0.
 08025947,0.00037703,-0.00041708,0.00113785,-0.00051510,0.00024126,-0.0
 0013970,-0.00058356,-0.00022470,-0.00020205,0.00037539,0.00022817,0.00
 120887,0.33383724,-0.02751273,0.00481682,-0.00779231,-0.00176493,-0.00
 492899,-0.00123364,0.00008697,-0.00130298,-0.00001009,0.00238498,-0.00
 452328,-0.00034908,0.02673694,0.00586640,0.00795952,-0.00595275,-0.060
 56900,-0.00331401,0.00028993,0.00071247,0.00035174,-0.00132555,0.00017
 516,-0.00033553,0.00130431,0.00015729,0.00036993,-0.00041915,0.0006815
 5,0.00026463,0.00620361,0.05874122,-0.00518062,0.00093036,0.00158318,-
 0.00183915,-0.00139700,0.00646484,0.00044873,-0.00017997,-0.00060530,-
 0.00148494,0.00010576,0.00687632,-0.00214969,-0.00091262,0.00240626,-0
 .08058433,-0.00336412,-0.05970629,0.00119046,0.00013147,-0.00331935,-0
 .00019386,0.00010858,0.00002151,-0.00015012,-0.00009476,-0.00000386,0.
 00121609,0.00052414,-0.00344559,0.08862447,0.00404865,0.05070922,-0.00
 042249,0.00143689,-0.00022421,-0.00341369,-0.00305468,-0.00162143,-0.0
 1854760,0.02566718,-0.00001421,-0.00089082,0.00097229,-0.00043068,-0.0
 0042169,0.00064742,0.00038245,0.00011905,-0.00017164,0.00003985,-0.000
 50190,-0.00000025,-0.00005260,0.00013486,0.00001515,0.00004999,-0.0021
 3780,0.00033060,-0.00116673,-0.00000133,-0.00002401,0.00002273,-0.0000
 2495,0.00001040,-0.00012305,0.55783101,0.00029799,0.00075796,0.0005669
 5,-0.00377947,0.00075908,-0.00103871,0.01162594,0.00464495,-0.00403082
 ,-0.00182606,-0.00142172,0.00001866,0.00016703,-0.00035589,0.00002827,
 -0.00035563,-0.00019377,-0.00016549,-0.00023444,0.00003494,-0.00009658
 ,-0.00005688,-0.00003425,-0.00006212,-0.00191797,0.00055071,-0.0009236
 5,-0.00012368,-0.00002895,-0.00005140,-0.00002968,-0.00003052,0.000001
 63,-0.05766512,0.54028367,-0.00017680,0.00019131,-0.00007987,-0.000837
 58,-0.00112645,0.00239962,-0.00527784,0.00520750,0.00244327,-0.0008021
 0,0.00036536,-0.00074429,-0.00018161,0.00031939,0.00034093,-0.00022649
 ,-0.00005024,-0.00001832,-0.00007667,0.00002712,-0.00026834,0.00005102
 ,-0.00005318,-0.00045468,-0.00064925,0.00010967,-0.00027501,-0.0000392
 0,-0.00003340,0.00000224,-0.00002747,0.00002909,-0.00008450,-0.1712509
 2,-0.16063760,0.34535404,0.00025152,0.00017484,0.00012790,-0.00088025,
 0.00040676,-0.00034442,0.00303154,0.00074479,-0.00019754,0.00046907,0.
 00017596,0.00017231,0.00010251,-0.00043368,-0.00021018,0.00005198,-0.0
 0006128,-0.00000851,-0.00001112,-0.00000806,-0.00001015,0.00002745,-0.
 00009676,0.00001711,0.00010889,-0.00078789,0.00032897,-0.00000241,0.00
 001365,0.00001028,0.00000967,-0.00004739,0.00004834,-0.25013967,0.0364
 5392,0.08734690,0.55271543,0.00001797,-0.00029767,-0.00008508,0.001243
 29,0.00034119,0.00072950,-0.00045104,-0.00409746,0.00018721,-0.0004649
 2,-0.00018900,-0.00010449,0.00013348,0.00023033,0.00001437,-0.00006211
 ,0.00005397,-0.00000381,0.00011654,0.00000009,0.00000342,-0.00005289,0
 .00004850,-0.00008697,0.00012221,0.00042048,0.00011982,0.00003971,0.00
 001390,0.00001482,0.00000395,0.00003675,0.00001589,-0.00160264,-0.1153
 9382,0.02510708,-0.08913776,0.62292166,-0.00013347,0.00017945,-0.00008
 023,-0.00028835,-0.00021344,-0.00038363,-0.00186196,0.00189780,0.00039
 751,-0.00020617,0.00014348,0.00001986,0.00000808,0.00016156,0.00004198
 ,-0.00000464,0.00004696,-0.00001573,-0.00007360,0.00001332,0.00001380,
 -0.00001999,0.00006793,0.00006585,0.00017999,0.00025312,-0.00004110,-0
 .00001969,-0.00001590,-0.00000664,-0.00001840,0.00001689,-0.00000940,0
 .11056938,0.00205525,-0.12509726,-0.19447661,-0.21051044,0.36397229,-0
 .00008416,-0.00005820,-0.00001698,0.00016977,-0.00005339,-0.00024583,-
 0.00117574,-0.00020217,-0.00008550,-0.00307176,0.00107926,-0.00187274,
 -0.00022781,0.00045974,0.00013370,-0.00012392,0.00000104,-0.00003561,-
 0.00000547,-0.00000345,0.00004879,0.00005460,-0.00003105,-0.00000615,-
 0.00131231,0.00054730,-0.00150706,-0.00000801,-0.00002991,-0.00007357,
 -0.00003342,0.00003396,-0.00000921,-0.13338405,-0.05346911,0.06928922,
 -0.00720593,-0.02406707,0.02215456,0.61511729,-0.00028990,-0.00003238,
 -0.00025472,0.00044950,-0.00059360,0.00028055,-0.00346749,0.00058770,0
 .00165421,0.00119592,0.00069219,0.00071381,-0.00030223,0.00009346,0.00
 020546,0.00022935,0.00005862,0.00002433,-0.00001918,0.00000613,-0.0000
 2362,-0.00005432,0.00006060,0.00005114,0.00056442,0.00013559,0.0000610
 8,0.00000640,-0.00000675,0.00005247,0.00000719,0.00000522,-0.00005208,
 -0.01827232,-0.20196571,0.08181251,-0.05322526,0.03513348,0.01805707,-
 0.12823140,0.58030926,-0.00008791,-0.00001219,0.00006072,0.00025154,0.
 00019207,0.00001764,0.00094555,-0.00153222,-0.00084286,-0.00218414,-0.
 00003780,-0.00230262,0.00046354,0.00037499,-0.00017604,-0.00004239,0.0
 0015827,0.00013125,0.00005203,0.00001077,-0.00002275,-0.00003042,0.000
 00591,-0.00000423,-0.00233825,0.00114696,-0.00075240,0.00003933,-0.000
 00517,-0.00002947,-0.00005128,0.00004114,0.00003957,0.04610804,0.11023
 714,-0.14862919,0.03918638,-0.00136490,-0.01490583,-0.21106472,-0.1604
 9747,0.34934429,-0.00000849,0.00007456,0.00002108,-0.00000518,-0.00004
 435,-0.00028730,-0.00023812,0.00033613,0.00000614,-0.00011433,-0.00019
 995,-0.00010556,-0.00000619,0.00010837,0.00000406,-0.00000527,-0.00002
 000,0.00000648,-0.00002069,-0.00000095,0.00002674,-0.00001152,0.000042
 99,0.00001363,-0.00006132,0.00017633,0.00009319,0.00000761,0.00000339,
 0.00000010,-0.00000135,0.00001362,-0.00000742,-0.03094904,0.02360327,0
 .00918927,-0.17854907,0.13631787,-0.00418343,-0.00368653,0.00586902,-0
 .00499277,0.61607493,0.00005743,-0.00001509,0.00006101,-0.00007585,0.0
 0013174,-0.00000665,0.00089703,-0.00007750,-0.00043313,0.00052783,0.00
 007311,0.00017942,0.00000984,-0.00026437,-0.00006519,0.00007657,-0.000
 00078,0.00000417,0.00001508,-0.00000526,-0.00000495,0.00001250,-0.0000
 0701,-0.00000010,-0.00000879,-0.00049224,-0.00000055,0.00001168,0.0000
 1187,0.00001725,0.00001745,-0.00002767,0.00001265,0.05910524,0.0175172
 4,-0.03924782,0.08304500,-0.25955401,0.05850968,0.00744449,-0.05363439
 ,0.02233676,-0.10411125,0.57589848,0.00003901,-0.00016456,-0.00002831,
 0.00047005,0.00020296,0.00009375,0.00004731,-0.00155784,0.00011176,-0.
 00027392,-0.00002900,0.00005400,0.00001123,0.00006258,0.00002791,-0.00
 003300,-0.00000107,-0.00000167,0.00004901,-0.00000094,0.00002637,0.000
 01262,-0.00000961,0.00002412,-0.00003059,0.00013207,-0.00012358,0.0000
 0728,-0.00000034,-0.00001037,0.00000066,0.00000610,-0.00000495,-0.0114
 2783,-0.02036755,0.02210466,0.02368658,0.02931260,-0.09006760,-0.00596
 447,0.02226315,-0.01502386,-0.22270915,-0.17865593,0.35707723,-0.00001
 767,0.00004099,-0.00000933,-0.00005089,-0.00006672,0.00000475,-0.00003
 790,0.00029307,0.00003024,0.00007717,-0.00001690,-0.00005161,0.0000012
 2,0.00002938,0.00000670,-0.00000123,0.00000033,0.00000302,-0.00000774,
 -0.00000062,-0.00000313,-0.00002263,0.00002827,0.00000744,0.00004693,0
 .00002171,0.00005945,0.00000661,0.00000201,0.00000880,0.00000244,0.000
 00536,0.00000001,-0.00479941,-0.01976383,0.01562129,-0.08858903,-0.066
 49012,0.06491519,-0.00335206,0.00265998,0.00369781,0.00981559,0.014123
 47,-0.01121888,0.09033778,-0.00001230,0.00001139,-0.00000145,-0.000049
 15,-0.00005933,0.00000917,-0.00022692,0.00027307,0.00007916,-0.0000084
 3,0.00008835,-0.00003401,-0.00001381,-0.00001681,-0.00000173,0.0000087
 2,0.00000154,0.00000004,-0.00000308,-0.00000086,-0.00000237,0.00000651
 ,0.00000265,-0.00001342,-0.00001226,-0.00002324,-0.00000708,-0.0000087
 6,-0.00000455,-0.00000166,-0.00000091,-0.00000183,-0.00000191,0.000279
 15,0.00600572,-0.00159412,-0.06672408,-0.20386751,0.12988580,0.0021511
 0,0.00157831,0.00104664,-0.01002465,-0.01401623,0.01544066,0.06529833,
 0.21840936,-0.00002817,-0.00002180,-0.00002930,-0.00009196,-0.00004669
 ,0.00004891,-0.00014172,0.00020066,0.00002289,-0.00002047,0.00011673,-
 0.00000713,-0.00001826,-0.00002231,-0.00000424,-0.00001196,0.00000975,
 -0.00000680,-0.00001015,0.00000275,-0.00000582,0.00001092,-0.00003244,
 0.00001245,-0.00000948,-0.00002997,-0.00003404,-0.00001116,-0.00000487
 ,-0.00000411,-0.00000368,-0.00000507,0.00000224,0.00328854,0.01005531,
 -0.00416909,0.06632850,0.13050920,-0.14786012,0.00413064,0.00060437,0.
 00310363,0.00158154,0.00113474,0.00179384,-0.07208415,-0.14233300,0.14
 772795,-0.00015297,-0.00006446,-0.00014220,0.00018868,-0.00027840,0.00
 030049,-0.00090606,0.00060519,0.00062337,0.00082689,0.00009038,-0.0000
 6444,0.00008824,-0.00020174,-0.00003820,0.00012697,0.00011568,0.000076
 22,0.00000502,0.00000140,-0.00003251,-0.00000156,0.00001403,0.00006275
 ,-0.00039031,-0.00006880,-0.00016771,0.00001045,0.00000497,0.00001490,
 0.00000467,-0.00001747,0.00000362,0.04515138,0.02578589,-0.03682328,-0
 .04514532,0.02773798,0.00750851,-0.18118799,0.09036953,0.02458314,-0.0
 0732978,-0.06236001,0.04169446,-0.00090488,0.00057520,-0.00016718,0.56
 776817,0.00008579,0.00004178,0.00010150,0.00008718,0.00029924,-0.00030
 997,0.00087561,-0.00079537,-0.00065465,-0.00072984,-0.00053242,-0.0004
 8389,0.00006397,0.00038822,0.00007434,-0.00015847,-0.00005755,-0.00002
 327,0.00000078,0.00000953,0.00005083,-0.00003514,0.00003025,-0.0000018
 6,0.00025005,0.00030331,0.00037069,0.00001457,-0.00001650,-0.00003321,
 -0.00003635,0.00004483,-0.00001161,-0.01186553,-0.04676776,0.03476972,
 0.02602442,-0.02091209,-0.00822425,0.14181955,-0.26874642,0.03122159,-
 0.02509317,0.03734355,-0.00160143,0.00058133,0.00004051,-0.00053201,-0
 .08830999,0.61778535,0.00009854,0.00001072,0.00006604,0.00001957,0.000
 22931,-0.00016585,0.00044720,-0.00062770,-0.00002573,-0.00020821,-0.00
 047091,-0.00003579,-0.00013560,0.00010149,-0.00003620,-0.00004440,-0.0
 0010240,-0.00002185,0.00000797,-0.00000378,0.00003004,0.00001184,-0.00
 000078,-0.00003282,-0.00018710,0.00024041,-0.00007819,0.00002742,0.000
 00821,-0.00000550,0.00000270,0.00000997,0.00000759,-0.01661208,0.01475
 090,0.00857726,0.00825359,-0.00844398,-0.00706200,-0.00443309,0.061773
 05,-0.08887976,0.02163989,0.01993244,-0.01563786,-0.00014912,-0.000609
 92,-0.00016579,-0.20329598,-0.21192573,0.36164799,-0.00008915,-0.00004
 528,-0.00006530,0.00008293,-0.00015288,0.00026844,0.00019052,0.0003776
 6,-0.00013781,-0.00064656,-0.00030072,-0.00171091,-0.00001074,0.000149
 35,-0.00012794,-0.00010928,0.00004770,0.00009192,0.00000933,0.00000366
 ,-0.00003984,0.00000008,-0.00000336,-0.00000770,-0.00067611,0.00072839
 ,-0.00108825,0.00001234,-0.00000575,-0.00002736,-0.00001306,0.00001137
 ,0.00002078,-0.00556092,0.00171844,0.00363230,0.00195993,-0.00098290,0
 .00272340,-0.26724183,0.02355468,0.12689628,0.00046929,-0.00014453,-0.
 00048712,-0.00030513,0.00033158,0.00022300,-0.01133105,-0.00072946,0.0
 0880863,0.28317455,-0.00012181,-0.00006198,-0.00004154,0.00012292,-0.0
 0021319,-0.00002469,-0.00000131,0.00002289,0.00022711,0.00040549,0.000
 19337,0.00068856,0.00014070,-0.00006463,0.00001413,-0.00001661,0.00011
 508,-0.00001481,-0.00002144,0.00000390,0.00000005,-0.00000811,0.000008
 28,0.00000961,0.00003642,0.00017240,-0.00014075,-0.00004496,-0.0000178
 5,-0.00001647,-0.00000593,-0.00000242,-0.00000520,-0.02066996,0.005996
 58,0.01040446,-0.00008713,-0.00270345,0.00470441,0.02429319,-0.0576083
 2,-0.00293529,-0.00004443,-0.00116334,0.00022086,-0.00103383,0.0003817
 8,0.00070357,0.02382951,0.00242630,-0.01355896,-0.02885287,0.05679733,
 0.00010276,-0.00004120,-0.00002940,-0.00027929,-0.00010792,0.00018527,
 -0.00010185,0.00095570,-0.00018358,-0.00057136,0.00043162,-0.00034586,
 -0.00024855,-0.00013542,-0.00003126,-0.00001435,-0.00013009,-0.0000378
 0,-0.00000003,-0.00001462,-0.00002712,0.00004789,-0.00005799,-0.000017
 61,-0.00058217,-0.00004618,-0.00183676,-0.00000641,0.00001539,0.000014
 46,0.00004197,-0.00003051,0.00000857,0.01655695,-0.00366907,-0.0055717
 7,0.00170423,0.00526421,0.00207367,0.12565438,-0.00330168,-0.10866434,
 -0.00048857,-0.00003933,-0.00036611,0.00104167,-0.00010498,0.00001686,
 -0.00463878,0.00147324,0.00520527,-0.13666559,0.00097381,0.10958939,0.
 00007267,0.00003344,0.00006929,-0.00007666,0.00014329,-0.00022721,0.00
 051853,-0.00031807,-0.00034760,-0.00060231,-0.00003092,-0.00000584,0.0
 0002226,0.00012047,0.00002231,-0.00008950,-0.00004758,-0.00002533,-0.0
 0000637,-0.00000072,0.00002962,0.00000526,-0.00000916,0.00000907,0.000
 07204,0.00029375,0.00005167,-0.00001846,-0.00000728,-0.00001732,-0.000
 00771,0.00001201,-0.00000834,-0.03165596,-0.02180433,0.02555853,0.0497
 1105,-0.01600860,-0.01657806,-0.03251991,0.06135851,-0.01082295,-0.138
 56266,-0.01263007,0.05150786,-0.00017354,0.00489164,0.00179663,-0.2759
 6337,0.00180709,0.12121194,0.00172649,0.00366528,0.00176001,0.58063512
 ,0.00000036,0.00002150,-0.00000134,0.00009436,0.00000739,-0.00004178,-
 0.00049732,-0.00015157,0.00014954,-0.00011394,-0.00017349,-0.00005762,
 -0.00007139,0.00015349,0.00002234,-0.00000994,-0.00004298,-0.00000700,
 -0.00000501,0.00000480,0.00001184,-0.00001906,0.00002279,-0.00004122,0
 .00006006,0.00008000,0.00009475,0.00002543,0.00000465,0.00000570,-0.00
 000374,0.00001690,-0.00000635,-0.02005790,-0.00876298,0.01265451,0.022
 30880,-0.04605107,0.01652217,0.02332881,0.01907283,-0.02087578,-0.0654
 7047,-0.23595915,0.13169220,0.00442254,-0.00143261,0.00199400,0.054803
 31,-0.11782854,-0.00019436,0.00442058,-0.00281745,0.00308362,-0.136695
 12,0.62808139,-0.00000207,0.00000135,-0.00001889,-0.00008853,-0.000078
 06,0.00012736,-0.00003419,0.00044245,0.00013573,0.00054813,0.00022613,
 0.00026169,-0.00003374,-0.00021420,-0.00001766,0.00008296,0.00000899,0
 .00000579,0.00000075,-0.00000275,-0.00002319,0.00001357,-0.00001117,0.
 00001360,0.00005293,-0.00042658,-0.00004564,-0.00000115,0.00000699,0.0
 0001353,0.00001283,-0.00002301,0.00000295,0.02478411,0.01367301,-0.028
 25753,-0.03679914,0.03770761,0.00775743,0.00994889,-0.04199237,0.02382
 954,0.07966965,0.10047357,-0.16056091,0.00196101,0.00182138,0.00500794
 ,0.09247374,0.03022220,-0.12924446,0.00100771,0.00356100,0.00489300,-0
 .18219932,-0.18940004,0.33571779,-0.00000630,0.00002350,-0.00000563,-0
 .00006925,-0.00004970,-0.00004384,-0.00000021,0.00028273,0.00007059,0.
 00002949,-0.00002994,-0.00001500,-0.00001087,0.00001428,0.00000293,-0.
 00000109,-0.00000493,0.00000018,-0.00001139,0.00000240,-0.00000166,0.0
 0000607,-0.00000081,0.00001713,0.00000363,0.00001777,0.00000396,-0.000
 00794,-0.00000597,0.00000112,-0.00000626,0.00000049,-0.00000239,0.0015
 3762,0.00434904,0.00104128,-0.01117752,-0.00069579,0.00858769,0.000439
 37,-0.00009062,-0.00058597,-0.27206833,0.02319969,0.12331556,-0.000255
 53,-0.00071505,-0.00172288,0.00257103,-0.00065758,0.00306481,-0.000285
 45,-0.00023016,-0.00036605,-0.00498902,0.00264686,0.00323528,0.2852256
 8,0.00001242,-0.00003223,-0.00000011,0.00007854,0.00004389,0.00008257,
 0.00008289,-0.00032464,0.00000134,-0.00000107,-0.00005214,-0.00003523,
 0.00000318,0.00000802,0.00000312,-0.00000480,-0.00000265,0.00000271,0.
 00001426,-0.00000093,-0.00000394,-0.00000632,-0.00000237,-0.00001162,-
 0.00001431,0.00000490,-0.00000044,0.00000452,0.00000163,0.00000181,0.0
 0000213,0.00000086,0.00000063,0.00354554,-0.00278430,0.00308563,0.0237
 1877,0.00169406,-0.01328090,-0.00003091,-0.00121225,0.00032586,0.02294
 595,-0.05695856,-0.00229393,-0.00096851,-0.00016154,-0.00155855,0.0002
 4824,-0.00229753,0.00495211,-0.00022903,-0.00006050,-0.00045727,-0.022
 12815,0.00620952,0.01101356,-0.02651944,0.05524741,0.00000103,-0.00000
 227,0.00000574,-0.00000869,-0.00000821,0.00000040,0.00002882,0.0000304
 0,-0.00001450,0.00000639,-0.00004825,-0.00002088,-0.00001586,0.0000054
 2,0.00000881,-0.00000416,-0.00000827,0.00000162,0.00000024,-0.00000107
 ,-0.00000285,-0.00000001,-0.00000208,-0.00000136,-0.00002862,0.0000186
 1,-0.00002742,-0.00000269,-0.00000042,-0.00000082,0.00000202,-0.000000
 07,-0.00000277,0.00131354,0.00327045,0.00471023,-0.00456355,0.00085618
 ,0.00501582,-0.00060620,0.00018273,-0.00036089,0.12364651,-0.00190840,
 -0.10725982,-0.00170556,-0.00169280,-0.00212790,0.00263417,0.00527547,
 0.00275643,-0.00036719,-0.00045438,-0.00069416,0.01612130,-0.00361725,
 -0.00428274,-0.13560293,-0.00037140,0.10436066,-0.00001295,-0.00000868
 ,-0.00000229,-0.00000274,-0.00002042,-0.00000807,0.00001660,0.00001184
 ,0.00002717,-0.00002880,0.00003910,-0.00000875,0.00001156,-0.00001151,
 0.00000960,-0.00001177,0.00001269,0.00000035,-0.00000120,-0.00000217,-
 0.00000061,0.00000555,-0.00000410,-0.00000151,0.00003188,0.00000540,-0
 .00001044,-0.00001015,-0.00000176,-0.00001095,0.00000147,-0.00000082,-
 0.00000067,-0.00014466,0.00422580,0.00235919,-0.00089099,0.00065761,-0
 .00015521,0.00921467,0.01397805,-0.01164557,-0.00336855,0.00291462,0.0
 0419971,-0.00008832,-0.00027245,-0.00039572,-0.08616352,-0.06411037,0.
 06357683,-0.00023593,-0.00109709,-0.00172155,-0.00426307,-0.02244814,0
 .01615072,-0.00030080,-0.00114059,0.00090456,0.08591547,0.00000752,-0.
 00000709,0.00000319,0.00003695,0.00003225,0.00001604,-0.00001245,-0.00
 009319,-0.00007326,0.00000565,-0.00001001,-0.00005353,0.00001745,-0.00
 000635,-0.00001038,0.00000554,0.00000323,0.00000356,0.00000649,-0.0000
 0136,0.00000363,-0.00001193,0.00000445,-0.00000859,-0.00006182,-0.0000
 1508,0.00001029,0.00001319,0.00000613,0.00001062,0.00000452,-0.0000002
 8,0.00000422,0.00528918,-0.00147260,0.00171767,0.00065766,-0.00009108,
 -0.00060280,-0.01079888,-0.01462026,0.01564488,0.00197380,0.00231791,0
 .00127109,-0.00028259,-0.00020659,-0.00031463,-0.06367489,-0.20596435,
 0.12879732,-0.00068068,-0.00019856,-0.00175464,0.00225694,0.00570935,-
 0.00290960,0.00022925,0.00021888,-0.00010934,0.06703078,0.21485958,-0.
 00002193,-0.00001643,-0.00000332,-0.00000441,-0.00003846,-0.00001718,0
 .00001521,0.00003236,-0.00001756,-0.00007718,0.00006088,-0.00007855,0.
 00003849,0.00000866,0.00001451,-0.00002056,0.00002253,0.00000078,-0.00
 000269,-0.00000111,0.00000030,0.00000791,-0.00000623,0.00000391,0.0000
 4304,0.00004921,0.00003052,-0.00001913,-0.00000450,-0.00001240,-0.0000
 0302,0.00000038,-0.00000097,0.00186850,0.00190355,0.00559958,-0.000078
 01,-0.00068205,-0.00008479,0.00175927,0.00158738,0.00061713,0.00470120
 ,0.00089310,0.00348948,-0.00037982,-0.00031779,-0.00065967,0.06376542,
 0.12883227,-0.14286860,-0.00194391,-0.00156658,-0.00223771,0.00243242,
 0.01119082,-0.00478144,0.00021179,0.00065806,-0.00020192,-0.07096935,-
 0.14128294,0.14321613,-0.00002005,0.00000226,-0.00001156,-0.00000135,-
 0.00003530,0.00001160,-0.00004178,0.00005140,0.00001200,0.00000421,-0.
 00000554,-0.00003445,0.00002582,0.00002791,-0.00000109,-0.00000295,0.0
 0001349,0.00000093,-0.00000401,0.00000285,-0.00000304,-0.00000218,0.00
 000243,0.00000450,0.00003374,0.00002531,0.00005627,-0.00000596,-0.0000
 0448,0.00000092,-0.00000678,0.00000337,0.00000026,-0.00051233,-0.00082
 791,0.00034380,0.00135484,-0.00069190,0.00382860,-0.00267373,0.0001795
 4,0.00537358,0.00962936,-0.01007495,0.00158432,0.00035580,-0.00049446,
 0.00013695,-0.01030453,0.02399494,-0.00564182,-0.00060986,0.00123083,-
 0.00019408,-0.14152999,0.13227000,-0.01122200,-0.00023694,-0.00063611,
 -0.00176749,-0.00016913,-0.00110884,-0.00139807,0.14478900,0.00000160,
 0.00000113,-0.00000143,-0.00000454,0.00000127,0.00002133,-0.00000242,0
 .00000771,-0.00000716,0.00000598,0.00002474,0.00002802,-0.00000068,-0.
 00001668,-0.00000072,0.00000220,0.00000203,-0.00000168,0.00000247,-0.0
 0000254,-0.00000230,-0.00000549,0.00000162,-0.00000446,-0.00000110,-0.
 00001842,-0.00001898,0.00000163,0.00000333,0.00000231,0.00000541,-0.00
 000156,0.00000155,-0.00077583,0.00012002,-0.00009046,-0.00155647,-0.00
 047850,0.00513419,0.00106677,0.00256377,0.00171806,0.01486319,-0.01422
 352,0.00077465,0.00076356,-0.00071542,-0.00001106,-0.00097344,0.001679
 86,0.00101318,-0.00006887,0.00000484,0.00011254,0.13231291,-0.24522492
 ,0.03730184,-0.00118376,-0.00012619,-0.00139940,-0.00054513,-0.0000834
 7,-0.00161205,-0.14376098,0.25655056,-0.00001127,-0.00000030,-0.000011
 19,-0.00003388,-0.00003303,0.00003170,-0.00007636,0.00011654,0.0000251
 4,0.00002358,0.00004583,0.00003242,-0.00000404,-0.00000547,-0.00000009
 ,0.00000349,0.00000626,-0.00000482,-0.00000220,0.00000032,-0.00000661,
 0.00000161,-0.00000544,0.00000090,0.00002564,-0.00001633,-0.00000596,-
 0.00000587,-0.00000234,0.00000284,-0.00000060,-0.00000160,0.00000158,0
 .00041424,-0.00002595,-0.00099334,0.00419176,0.00468580,0.00250361,0.0
 0487998,0.00200477,0.00306002,-0.01171966,0.01486399,0.00165153,-0.000
 54313,0.00073474,0.00006892,0.00777969,-0.01297225,0.00525167,0.000479
 81,-0.00062788,0.00014266,-0.01115265,0.03725262,-0.04978473,-0.001559
 96,-0.00170437,-0.00215686,-0.00169732,-0.00132481,-0.00197486,0.00941
 157,-0.04270142,0.04278002,-0.00106232,0.00005242,-0.00105269,-0.00101
 707,-0.00053554,0.00004073,-0.00086296,-0.00218199,0.00213227,-0.00081
 862,-0.00047813,-0.00107081,0.00039564,0.00004355,0.00011750,-0.000420
 12,0.00060831,0.00003619,-0.00010734,-0.00002670,0.00012589,-0.0012741
 5,0.00075630,0.00227308,0.00016938,0.00020251,0.00035665,-0.00000154,0
 .00008001,0.00005470,0.00010874,0.00008539,0.00008309,0.00101736,-0.00
 069069,0.00044825,0.00151205,0.00286440,-0.00221996,-0.00085988,0.0002
 5663,0.00036423,-0.00088969,-0.00104707,0.00096606,-0.00076385,0.00404
 696,-0.00230919,-0.00031342,-0.00008400,0.00010137,-0.00005768,-0.0002
 1320,0.00039348,0.00024959,0.00005664,-0.00020665,-0.00012318,0.000312
 92,-0.00001391,-0.00007444,0.00001404,0.00003520,-0.00004789,-0.000161
 33,0.00014299,0.91710640,-0.00096664,-0.00027031,0.00006070,0.00008124
 ,0.00260245,0.00074373,0.00244092,0.00069458,0.00138658,-0.00132789,-0
 .00202194,-0.00110905,0.00088551,-0.00097837,0.00027898,0.00000004,0.0
 0088680,0.00018430,0.00057675,-0.00014359,-0.00014564,0.00004577,0.000
 18672,-0.00169006,-0.00011806,-0.00029594,0.00010924,0.00007830,-0.000
 00992,0.00002575,0.00012298,0.00000142,-0.00005636,-0.00256719,-0.0005
 7551,-0.00107319,-0.00115447,-0.00176043,0.00099226,0.00036355,-0.0016
 2861,-0.00025456,0.00082258,-0.00020891,-0.00069898,0.00403531,-0.0009
 1563,0.00118352,-0.00041384,0.00046192,0.00015212,0.00000001,0.0000578
 5,-0.00017537,0.00037246,0.00015116,-0.00022968,-0.00002452,-0.0000152
 0,0.00005627,0.00009760,0.00005239,0.00002213,0.00001511,0.00019929,-0
 .00006249,0.20694061,0.63047742,-0.00075229,-0.00128767,-0.00117079,0.
 00181770,0.00121571,-0.00088791,-0.00166201,-0.00247649,-0.00142909,-0
 .00097112,0.00129992,-0.00088331,-0.00084582,-0.00018919,-0.00062881,-
 0.00072456,-0.00000903,-0.00037794,-0.00047873,0.00018593,0.00023513,0
 .00215365,-0.00134040,0.00098844,0.00008482,-0.00029301,0.00058454,-0.
 00038671,-0.00017879,0.00002072,-0.00028781,-0.00013108,0.00010811,-0.
 00395618,-0.00527431,0.00817292,-0.00079116,-0.00171546,-0.00026434,0.
 00255577,-0.00131793,-0.00085212,-0.00044903,-0.00005812,0.00001858,-0
 .00148544,0.00077772,0.00151945,0.00008112,-0.00072212,0.00029116,0.00
 004195,0.00022540,0.00005298,0.00001545,-0.00042391,0.00037315,0.00042
 617,-0.00025263,0.00004442,0.00016452,-0.00038735,0.00012302,0.0001013
 2,-0.00016101,0.00005013,0.10147186,0.15517141,0.51202398,0.00016388,-
 0.00007579,0.00014559,0.00016963,0.00008558,0.00023631,0.00007706,-0.0
 0019011,0.00056425,0.00009887,0.00017385,0.00007927,0.00005174,-0.0000
 9745,-0.00003952,0.00016273,-0.00000646,0.00002330,0.00008883,-0.00000
 058,-0.00003706,0.00008024,-0.00007474,-0.00021701,-0.00007488,-0.0000
 7994,-0.00009528,-0.00001985,-0.00003564,-0.00000424,-0.00003472,-0.00
 001729,-0.00001121,-0.00060533,0.00100250,0.00062123,-0.00008513,-0.00
 116313,0.00121619,0.00046838,-0.00034185,-0.00022947,0.00036428,0.0003
 6644,-0.00036402,-0.00101414,-0.00146687,0.00054976,0.00007214,0.00008
 794,-0.00015184,0.00014373,0.00020868,-0.00016392,-0.00004290,-0.00007
 999,0.00007668,0.00011765,-0.00020077,0.00002702,0.00004793,-0.0000114
 2,-0.00001649,0.00002902,0.00006846,-0.00007216,-0.53993834,-0.0698164
 2,0.04933290,0.56871818,0.00019486,0.00002065,-0.00005724,-0.00014127,
 -0.00036723,-0.00019094,-0.00035048,-0.00036236,-0.00009817,0.00008610
 ,0.00025444,0.00008032,-0.00011079,0.00014395,-0.00002193,-0.00001159,
 -0.00013665,-0.00005236,-0.00014497,0.00003464,0.00005884,0.00010065,-
 0.00008607,0.00044112,0.00005092,0.00007759,-0.00000369,-0.00002039,0.
 00000366,-0.00000243,-0.00003499,-0.00000502,0.00000958,0.00018455,-0.
 00045669,0.00107316,0.00089925,0.00109949,-0.00022699,-0.00026047,0.00
 018364,0.00010019,-0.00048854,-0.00036723,0.00036792,-0.00078973,-0.00
 042283,-0.00036257,-0.00005315,-0.00009881,0.00002145,-0.00000657,-0.0
 0004627,0.00011578,0.00005721,-0.00002226,-0.00005685,0.00000873,0.000
 06331,-0.00002894,-0.00002861,-0.00002352,0.00001709,-0.00000678,-0.00
 009663,0.00006208,-0.06722191,-0.09158329,0.00100811,0.07894470,0.0709
 2321,0.00017562,0.00017819,0.00025065,-0.00025923,-0.00018258,0.000285
 32,-0.00010964,0.00121616,-0.00013772,0.00047414,-0.00014373,0.0004046
 8,0.00002423,0.00010300,0.00008468,0.00016193,-0.00007949,0.00004599,0
 .00008150,-0.00003251,-0.00004872,-0.00019501,0.00008285,-0.00040264,-
 0.00003518,0.00003093,-0.00012619,0.00009052,0.00003587,-0.00001891,0.
 00004925,0.00000979,-0.00002324,0.00041145,0.00018437,-0.00140757,-0.0
 0028023,0.00000577,0.00052527,-0.00018087,0.00021016,0.00012420,0.0003
 1343,0.00017713,-0.00013638,0.00028277,-0.00017409,-0.00099767,0.00001
 604,0.00007193,0.00002283,-0.00004691,-0.00006396,-0.00004942,-0.00008
 381,0.00010071,-0.00003201,-0.00010755,0.00002553,-0.00002289,-0.00001
 685,0.00005243,-0.00002950,-0.00002075,0.00005402,-0.00003981,0.057208
 57,0.00176239,-0.08202764,-0.06979273,-0.01152770,0.06902571,0.0010067
 7,0.00029209,0.00072419,-0.00096405,-0.00075531,0.00094764,-0.00105773
 ,-0.00002736,0.00134489,0.00053094,0.00059271,0.00076335,-0.00003560,0
 .00016941,-0.00001468,0.00030945,-0.00039237,-0.00006294,0.00002548,0.
 00000905,-0.00007197,-0.00008339,-0.00000668,-0.00051303,-0.00004178,0
 .00001467,-0.00025018,0.00001454,-0.00000742,-0.00001164,-0.00001834,-
 0.00001015,-0.00003588,0.00018556,0.00048846,-0.00058161,-0.00027514,-
 0.00046181,0.00044968,-0.00000943,0.00013967,0.00004065,0.00018651,0.0
 0008369,-0.00019287,0.00005836,-0.00026114,0.00020747,0.00007409,0.000
 10852,-0.00006035,0.00000864,0.00004580,-0.00013832,-0.00001984,0.0000
 2527,0.00000722,0.00001673,-0.00006276,-0.00000074,-0.00000153,0.00002
 291,-0.00002830,0.00000837,0.00004177,-0.00002726,-0.20862830,-0.16465
 479,-0.13277229,-0.00218376,-0.02455847,-0.02154844,0.19903652,0.00029
 606,0.00007516,0.00003554,0.00004255,-0.00096160,0.00010367,-0.0007481
 1,-0.00008442,0.00057089,0.00042951,0.00054644,0.00076775,0.00015391,0
 .00034229,0.00012730,0.00004315,-0.00014230,-0.00007950,-0.00019306,0.
 00004952,0.00004213,-0.00011534,0.00002086,0.00039918,0.00007886,0.000
 27183,-0.00029249,0.00002975,0.00002917,-0.00003978,-0.00002840,0.0000
 1694,-0.00000785,0.00042191,0.00031665,-0.00006198,0.00030409,0.000545
 27,-0.00023521,-0.00007000,0.00051336,-0.00007347,-0.00018220,0.000323
 98,0.00015630,-0.00072933,-0.00043298,-0.00002302,0.00012350,-0.000152
 33,0.00001563,-0.00004688,-0.00003198,0.00001429,-0.00021586,0.0000262
 7,0.00004732,-0.00006056,0.00001572,-0.00004629,-0.00002402,-0.0000037
 7,-0.00000574,-0.00001073,-0.00004403,0.00000067,-0.16925889,-0.307272
 68,-0.18339573,0.00181109,0.01139810,-0.00591668,0.18126203,0.30754101
 ,-0.00034528,0.00007611,0.00001584,0.00037302,0.00043797,-0.00047334,0
 .00160979,0.00109874,-0.00197249,-0.00030688,-0.00081622,-0.00023462,0
 .00044819,-0.00020307,0.00026156,0.00029836,0.00037520,0.00019969,0.00
 009492,-0.00006778,-0.00004239,-0.00028811,0.00016733,-0.00013307,-0.0
 0005146,0.00005069,-0.00009962,0.00012114,0.00007744,-0.00003341,0.000
 08865,0.00002787,-0.00002977,0.00043148,-0.00007361,-0.00102443,0.0002
 3594,0.00040323,0.00013570,-0.00026591,0.00012281,0.00013354,0.0001492
 7,-0.00011994,-0.00003508,0.00008606,-0.00001484,-0.00038248,-0.000085
 03,0.00010405,0.00005195,-0.00004856,-0.00007816,0.00000005,0.00001542
 ,0.00016065,-0.00008522,-0.00012662,0.00005529,-0.00003102,-0.00001830
 ,0.00005524,-0.00003074,-0.00002852,0.00004121,-0.00002179,-0.13878636
 ,-0.18439007,-0.22247508,0.00998206,0.00257187,0.01266948,0.15210299,0
 .20309437,0.22646972,0.00026153,0.00009494,0.00012311,-0.00053282,-0.0
 0057886,0.00074234,-0.00018846,-0.00002079,0.00003311,0.00004416,0.000
 08885,-0.00001769,-0.00007831,0.00004616,0.00001625,0.00001027,-0.0001
 8922,-0.00014102,-0.00010991,0.00003715,0.00008237,-0.00057293,-0.0009
 3066,0.00084952,-0.00000541,0.00000383,-0.00004154,-0.00000625,0.00000
 447,0.00001197,0.00000116,0.00000246,-0.00000731,-0.00003649,0.0001712
 9,-0.00003490,-0.00010096,-0.00018748,0.00008288,0.00004774,-0.0000022
 9,-0.00004259,0.00005638,0.00009564,-0.00004537,-0.00010601,-0.0003331
 3,0.00023400,0.00001804,0.00000905,-0.00001632,0.00000782,0.00001845,-
 0.00001930,-0.00001159,-0.00000719,0.00001246,0.00001297,-0.00003578,0
 .00000171,0.00000454,0.00000395,-0.00000403,0.00000027,0.00001127,-0.0
 0001164,-0.08801425,0.02928238,-0.01254905,-0.01531291,0.02244346,0.00
 011371,0.00751074,-0.01948314,-0.00732693,0.52155961,0.00017735,-0.000
 15593,0.00009168,-0.00053474,-0.00004472,0.00102254,-0.00017283,-0.000
 19307,-0.00022620,-0.00000494,0.00003230,-0.00005812,-0.00002564,0.000
 02662,0.00002741,0.00002962,-0.00004346,-0.00008167,-0.00004342,-0.000
 01327,0.00001721,-0.00051890,-0.00067508,0.00040056,0.00000058,0.00000
 462,-0.00003909,-0.00001091,-0.00000734,0.00001984,-0.00001738,-0.0000
 2022,-0.00002295,-0.00008150,0.00012200,0.00017620,0.00001613,0.000057
 54,0.00015012,0.00003072,-0.00005659,0.00001314,0.00000736,0.00002485,
 -0.00000570,-0.00008935,-0.00025036,-0.00000004,-0.00000904,0.00000059
 ,-0.00001793,-0.00000059,0.00001735,-0.00001167,0.00000174,0.00000541,
 -0.00000105,0.00000591,-0.00001104,-0.00000135,-0.00000214,-0.00000823
 ,0.00000546,0.00000260,-0.00000806,-0.00000541,0.03036339,-0.13141523,
 -0.00196322,-0.01042921,0.00755877,0.00252663,0.00776726,-0.01001623,-
 0.00040894,0.00864199,0.52179770,0.00009048,0.00021859,-0.00004135,0.0
 0007044,0.00014069,-0.00076400,0.00003820,0.00016476,0.00006372,0.0001
 5652,0.00008592,0.00020979,0.00000698,0.00015562,0.00002943,0.00000737
 ,-0.00010211,0.00004609,-0.00005296,-0.00000395,0.00002857,0.00090670,
 0.00106758,-0.00060719,0.00000070,0.00007004,-0.00003660,0.00003204,0.
 00002868,-0.00000567,0.00004305,0.00002434,-0.00000435,0.00108495,0.00
 076775,-0.00131408,0.00026002,0.00032505,-0.00012327,-0.00043176,0.000
 45143,0.00023747,-0.00002960,-0.00002840,0.00006895,-0.00003926,-0.000
 00069,-0.00017291,0.00006277,0.00008102,-0.00009251,0.00000055,-0.0000
 4275,0.00001108,0.00000097,0.00002981,-0.00002458,-0.00004417,0.000034
 13,-0.00000179,-0.00004233,0.00004864,-0.00003174,-0.00001599,0.000005
 59,0.00000084,-0.01426674,-0.00075985,-0.05762750,0.00126985,-0.000026
 07,0.01053503,0.00234284,-0.01943302,0.00350828,0.23462615,0.11241759,
 0.29853961,-0.00018429,-0.00026729,0.00006679,0.00000657,-0.00008029,0
 .00098900,-0.00009202,-0.00023722,-0.00015607,0.00007150,-0.00001558,-
 0.00002584,-0.00001417,-0.00005851,-0.00004595,-0.00001054,0.00010219,
 0.00001106,0.00004687,-0.00004792,-0.00005237,0.00006401,-0.00031717,-
 0.00002695,-0.00000545,-0.00002145,-0.00000806,-0.00000571,-0.00000844
 ,-0.00000117,-0.00002187,-0.00001246,0.00000920,-0.00016170,-0.0002358
 7,0.00040204,0.00002406,0.00005419,-0.00001235,0.00006583,-0.00007005,
 -0.00002417,-0.00002946,-0.00001634,0.00000148,-0.00005459,0.00002374,
 0.00001297,-0.00001666,-0.00002912,0.00002104,0.00000156,0.00000868,0.
 00000405,-0.00000716,0.00000512,0.00000305,0.00000353,0.00000157,-0.00
 000231,0.00000504,-0.00001322,0.00000654,0.00000362,-0.00000849,0.0000
 0362,-0.01298450,0.02129055,-0.00208049,-0.00018218,-0.00141426,0.0007
 2926,-0.00276404,-0.00079555,-0.00199633,-0.26068939,0.03185273,-0.114
 61681,0.54432346,-0.00042991,-0.00009885,-0.00006845,0.00018729,-0.000
 13303,0.00118158,0.00016089,-0.00021430,-0.00003184,-0.00007213,0.0000
 0977,-0.00013461,0.00005345,-0.00012872,-0.00002343,-0.00002932,0.0001
 0409,-0.00011490,0.00006732,0.00012449,0.00002994,-0.00057088,-0.00076
 915,0.00062536,0.00000780,0.00000213,0.00001008,-0.00001318,-0.0000096
 1,0.00001315,-0.00003974,-0.00000400,0.00004052,-0.00018938,-0.0001763
 6,0.00043129,-0.00000634,0.00006430,-0.00006499,0.00007267,-0.00007969
 ,-0.00007165,-0.00004985,-0.00002125,0.00002390,-0.00000683,0.00011372
 ,-0.00004620,-0.00002100,-0.00004977,0.00002469,-0.00000146,0.00000230
 ,0.00002351,-0.00001024,-0.00000093,0.00000574,0.00000404,0.00000787,-
 0.00000290,0.00000784,-0.00001447,0.00001287,0.00000368,-0.00001287,0.
 00000868,0.02288941,-0.00265854,0.01137474,0.00585468,-0.00335106,-0.0
 0178051,0.00056390,-0.00226048,0.00024145,-0.01052119,-0.11007313,-0.0
 2107008,-0.03741240,0.69704109,0.00023495,0.00036240,-0.00041030,0.000
 44443,0.00075429,-0.00123618,-0.00025644,-0.00018087,0.00001647,0.0002
 0159,0.00017750,0.00007714,-0.00026069,0.00014347,-0.00000851,-0.00013
 998,-0.00049561,-0.00017018,-0.00011482,0.00002454,0.00011811,0.000636
 10,0.00092757,-0.00106346,0.00000469,0.00000741,0.00001542,-0.00001267
 ,0.00000902,0.00000236,-0.00000540,-0.00001046,-0.00000442,-0.00005183
 ,-0.00009651,0.00017826,0.00000152,0.00005077,-0.00006130,0.00002055,-
 0.00002056,-0.00001732,-0.00002723,-0.00000515,0.00001885,-0.00000020,
 0.00004302,-0.00002075,-0.00001227,-0.00001800,0.00001080,-0.00000063,
 -0.00000302,0.00001744,-0.00000118,-0.00000004,0.00000177,-0.00000270,
 0.00000569,-0.00000197,0.00000107,-0.00000568,0.00000288,-0.00000040,-
 0.00000528,0.00000333,-0.00059773,0.01046031,-0.00020105,0.00345587,-0
 .00390666,0.00031402,-0.00150442,-0.00137016,-0.00066120,-0.12730994,0
 .00340925,-0.12629231,0.23102709,0.13935277,0.30898283,-0.00007673,0.0
 0007170,-0.00001747,-0.00010268,0.00003710,-0.00005761,0.00006089,0.00
 004526,0.00012722,-0.00001133,-0.00000012,-0.00003802,-0.00000536,0.00
 004171,-0.00001316,-0.00001842,-0.00000271,0.00002424,0.00003858,-0.00
 002345,-0.00002913,-0.00013587,-0.00012411,0.00000911,-0.00000123,-0.0
 0000781,0.00003340,-0.00000055,-0.00000320,0.00000367,0.00002049,0.000
 01250,-0.00001009,0.00006500,0.00006016,-0.00054303,-0.00005132,-0.000
 15716,0.00005332,-0.00002585,0.00003343,0.00003091,0.00003591,0.000025
 71,-0.00001317,0.00009448,-0.00003957,0.00002516,0.00004802,0.00003563
 ,-0.00001537,-0.00000536,-0.00000663,-0.00001888,0.00001202,-0.0000276
 6,0.00001064,0.00000873,-0.00000802,0.00000555,-0.00000268,0.00000544,
 -0.00000203,-0.00000079,0.00000730,-0.00000445,0.01225492,0.00612083,0
 .01179648,-0.00241843,0.00049077,-0.00194342,-0.00034143,0.00819697,0.
 00089657,-0.14424869,-0.08667341,-0.07808274,-0.01484019,-0.02239163,-
 0.01914627,0.60122604,-0.00024400,0.00007334,-0.00001743,0.00021274,-0
 .00009516,-0.00082546,0.00019935,0.00005687,0.00004223,-0.00006677,-0.
 00001694,0.00007975,0.00009381,-0.00000058,0.00001075,0.00002177,0.000
 11696,0.00015393,0.00012541,-0.00003156,-0.00010375,-0.00000513,0.0003
 5101,0.00032052,0.00000852,0.00002925,0.00000434,0.00001367,0.00000339
 ,-0.00002895,0.00001897,0.00002231,0.00000599,-0.00006084,-0.00008043,
 0.00015865,-0.00000175,0.00006799,-0.00001427,0.00003139,0.00003215,-0
 .00001409,-0.00001622,0.00000674,0.00000022,-0.00002268,-0.00001040,-0
 .00001339,-0.00000127,-0.00002674,0.00000647,-0.00000028,-0.00000395,0
 .00001073,-0.00001584,0.00000505,0.00000833,-0.00000250,-0.00000014,-0
 .00000135,0.00000206,-0.00000272,-0.00000201,-0.00000095,-0.00000195,0
 .00000097,0.00104718,-0.03150353,-0.00813383,-0.00028152,-0.00035851,-
 0.00033846,0.00015187,-0.00352143,-0.00222688,-0.04476997,-0.22910839,
 -0.07630423,-0.06103910,0.03697625,-0.02613216,-0.08055198,0.63367743,
 -0.00016348,0.00008597,0.00002519,0.00010706,-0.00019263,-0.00049981,0
 .00008669,0.00011244,0.00018444,-0.00005411,-0.00006485,-0.00001275,0.
 00007805,-0.00001658,0.00002059,0.00003809,0.00010365,0.00009057,0.000
 09224,-0.00002012,-0.00008257,-0.00005924,0.00026877,0.00018350,0.0000
 0639,0.00000812,0.00000680,0.00001322,0.00000210,-0.00001211,0.0000210
 3,0.00002063,0.00000801,0.00002599,-0.00000233,-0.00029976,-0.00002985
 ,-0.00003364,0.00001242,-0.00002940,0.00002714,0.00002119,0.00002367,0
 .00000711,-0.00001713,0.00005554,-0.00003035,0.00001661,0.00001359,0.0
 0001906,-0.00000070,-0.00000202,-0.00000657,-0.00000520,0.00000122,0.0
 0000196,-0.00000184,-0.00000204,0.00000115,0.00000532,-0.00000226,0.00
 000877,-0.00000457,-0.00000257,0.00000784,-0.00000243,0.01095837,-0.00
 491346,0.00235668,-0.00234301,-0.00105256,-0.00083722,-0.00144324,0.00
 308937,0.00153532,-0.06574016,-0.10228252,-0.12467691,-0.03183287,-0.0
 0439036,-0.01284687,0.25931757,0.10429124,0.32509626,-0.00013269,-0.00
 014969,0.00010543,0.00015741,0.00010426,0.00021573,-0.00016139,0.00008
 615,0.00004860,-0.00005824,-0.00012810,-0.00004682,0.00010710,-0.00013
 684,0.00000800,0.00014964,0.00017724,0.00008434,0.00025173,0.00008015,
 -0.00006814,-0.00026593,-0.00010696,-0.00023698,-0.00001626,-0.0000274
 8,-0.00002294,0.00000904,-0.00001817,-0.00000242,-0.00003550,-0.000024
 08,0.00000708,0.00012548,0.00011785,-0.00010828,0.00001702,-0.00000156
 ,0.00000036,-0.00004420,0.00003465,0.00002712,0.00000453,0.00000141,0.
 00000007,-0.00000814,-0.00001128,0.00000310,0.00001088,0.00001983,-0.0
 0001644,0.00000353,0.00000567,-0.00001504,0.00000198,-0.00000002,-0.00
 000371,0.00000027,-0.00000081,-0.00000084,-0.00000464,0.00000424,-0.00
 000221,0.00000131,-0.00000036,-0.00000101,-0.00251474,-0.00284425,-0.0
 0547948,-0.00065433,0.00098178,0.00090745,0.00158107,-0.00001170,0.001
 13413,-0.02639864,0.02438867,-0.01311023,-0.15839300,0.12619399,-0.019
 93544,-0.00195924,0.00487998,0.00332912,0.59092752,0.00005170,0.000136
 66,0.00006216,-0.00020580,-0.00024357,-0.00029372,-0.00009189,0.000102
 06,-0.00008446,0.00005271,0.00005630,0.00008338,-0.00006426,0.00006680
 ,-0.00000605,0.00006404,-0.00010152,0.00006526,0.00008514,-0.00004779,
 -0.00009360,0.00028455,0.00028731,0.00000140,0.00000716,0.00001190,-0.
 00000289,0.00000337,-0.00000724,-0.00001766,0.00001275,0.00001197,-0.0
 0001743,-0.00012788,-0.00016613,0.00025760,0.00002089,0.00006106,-0.00
 002424,0.00004454,-0.00002584,-0.00001167,-0.00003041,-0.00000853,0.00
 001244,-0.00002881,0.00003306,-0.00001754,-0.00000970,-0.00001489,0.00
 001537,-0.00000300,0.00000298,0.00000250,-0.00000502,0.00000111,0.0000
 0224,0.00000110,0.00000299,-0.00000375,0.00000169,-0.00001062,0.000003
 96,0.00000259,-0.00000867,0.00000278,-0.00134342,0.00745337,-0.0016738
 1,0.00075773,-0.00135446,0.00092454,0.00015896,-0.00044081,0.00022078,
 0.06723901,0.01675701,0.04167888,0.06905228,-0.29133319,-0.02719411,0.
 00076229,-0.06085702,-0.01690091,-0.08265759,0.63696967,0.00016780,-0.
 00011570,-0.00000179,-0.00012861,-0.00000199,-0.00016111,-0.00001169,-
 0.00002288,-0.00008372,0.00002761,0.00007948,0.00004678,-0.00005034,0.
 00006511,-0.00001621,-0.00003919,-0.00000189,-0.00000136,-0.00006363,-
 0.00002287,0.00003766,0.00018498,0.00022678,-0.00000843,0.00000229,0.0
 0000996,0.00000891,-0.00000599,0.00001010,-0.00000306,-0.00000440,-0.0
 0001729,-0.00000649,-0.00013964,-0.00012229,0.00014142,0.00000053,-0.0
 0000098,0.00000956,0.00004970,-0.00003080,-0.00003339,-0.00000479,0.00
 001183,-0.00000266,-0.00003189,-0.00001806,0.00002015,-0.00000116,-0.0
 0001792,0.00001629,-0.00000387,0.00000009,0.00000556,-0.00000979,-0.00
 000377,0.00000759,0.00000065,-0.00000205,-0.00000169,0.00000509,-0.000
 00640,0.00000376,0.00000032,-0.00000170,-0.00000053,-0.00602413,-0.000
 82781,0.00203539,-0.00160257,0.00135275,0.00012044,0.00127536,0.000102
 96,0.00054973,0.00185169,0.01745242,0.01205140,-0.03782693,0.00529705,
 -0.07957093,0.00203497,-0.01474327,-0.00783696,0.24733700,0.10546434,0
 .30759105,0.00004177,-0.00005238,-0.00000456,0.00005718,-0.00014768,0.
 00012484,-0.00008214,0.00004267,-0.00000810,-0.00003066,0.00006947,0.0
 0001453,-0.00001183,-0.00002627,-0.00000282,-0.00005829,-0.00005681,-0
 .00009438,-0.00008593,0.00006355,0.00009267,0.00003650,-0.00000065,-0.
 00006815,0.00000338,0.00001312,-0.00000710,-0.00000591,0.00000918,0.00
 000058,-0.00002138,-0.00001151,0.00001145,-0.00004655,-0.00005775,0.00
 010366,0.00002292,0.00003337,-0.00002476,0.00001887,-0.00000227,-0.000
 02272,-0.00001635,0.00000483,0.00001090,-0.00004371,0.00001207,-0.0000
 0345,-0.00000329,-0.00001760,0.00001069,-0.00000332,-0.00000277,0.0000
 1182,-0.00000988,0.00000084,0.00000404,-0.00000360,0.00000368,-0.00000
 254,0.00000143,-0.00000378,0.00000250,-0.00000058,-0.00000342,0.000001
 47,-0.00379921,-0.00384224,-0.00290384,0.00015377,0.00061940,0.0002681
 8,0.00162350,0.00108926,0.00169859,-0.00661075,-0.02176267,-0.01142110
 ,-0.09676939,-0.08691767,-0.05972582,-0.00315366,0.00293998,-0.0043561
 5,0.01033138,0.01302219,0.00769865,0.09856362,-0.00021743,-0.00007019,
 0.00014142,0.00002041,-0.00015543,0.00027821,0.00001169,0.00013614,0.0
 0004627,-0.00008246,-0.00012549,-0.00005890,0.00011130,-0.00010894,-0.
 00000290,0.00000488,0.00013829,0.00002424,0.00008518,-0.00005424,-0.00
 006587,-0.00001910,-0.00000887,-0.00009651,-0.00000163,-0.00000783,0.0
 0000301,0.00000460,-0.00000632,-0.00000209,0.00000415,0.00000793,0.000
 00157,-0.00000762,-0.00000267,-0.00003615,-0.00001921,-0.00001912,0.00
 000576,-0.00000221,-0.00000449,0.00000006,0.00001216,0.00000246,-0.000
 00811,0.00002401,-0.00000784,0.00000695,0.00000047,0.00000361,0.000000
 86,-0.00000064,-0.00000103,-0.00000172,0.00000262,-0.00000178,-0.00000
 084,0.00000086,-0.00000179,0.00000169,0.00000097,0.00000196,-0.0000006
 3,-0.00000053,0.00000322,-0.00000110,0.00142619,0.00058361,0.00225977,
 -0.00043606,-0.00001199,-0.00036766,0.00075909,-0.00219846,-0.00004686
 ,0.00027839,0.00593619,0.00103050,-0.08823084,-0.24291518,-0.10992342,
 0.00204854,0.00116902,0.00003036,-0.01177430,-0.01459139,-0.01202785,0
 .09214289,0.25473450,0.00002829,-0.00014632,0.00018594,-0.00014439,-0.
 00001013,0.00009595,-0.00010152,0.00017677,0.00002260,-0.00005705,-0.0
 0011708,-0.00003620,0.00012358,-0.00012419,-0.00002180,0.00016582,0.00
 028269,0.00014408,0.00010583,-0.00005449,-0.00008601,-0.00016963,-0.00
 019774,-0.00008531,-0.00000834,-0.00002550,-0.00001203,0.00000148,-0.0
 0003080,0.00000760,-0.00003558,-0.00001185,0.00000219,0.00008288,0.000
 07686,-0.00000156,0.00001194,-0.00000098,-0.00000291,-0.00002412,0.000
 01462,0.00002285,-0.00000622,-0.00000926,0.00000132,-0.00000409,0.0000
 1721,-0.00000411,0.00000596,0.00001411,-0.00001371,0.00000450,0.000008
 82,-0.00001844,0.00000317,-0.00000038,-0.00000432,0.00000476,-0.000000
 33,-0.00000054,-0.00000320,0.00000013,0.00000039,0.00000382,-0.0000038
 0,0.00000141,-0.00021647,-0.00119170,-0.00293188,0.00080324,0.00000430
 ,0.00038498,0.00117656,-0.00001625,0.00032998,-0.00459546,-0.01184454,
 -0.00350197,-0.06032635,-0.10766454,-0.10231601,-0.00474789,-0.0001066
 9,0.00293370,0.00067901,0.00181278,0.00434087,0.06832302,0.11804843,0.
 09911593,-0.00007337,0.00004598,0.00004924,-0.00000764,-0.00010256,-0.
 00031632,0.00003050,0.00007037,-0.00001915,0.00001258,-0.00004290,0.00
 003711,0.00002422,0.00000382,0.00000565,0.00002112,0.00002239,0.000094
 12,0.00010409,-0.00003082,-0.00008978,0.00007217,0.00021527,0.00006458
 ,-0.00000321,0.00000440,-0.00000135,0.00001286,0.00000381,-0.00001586,
 0.00001714,0.00001026,-0.00000150,0.00001001,0.00004528,0.00007529,-0.
 00000993,0.00001962,0.00001021,-0.00000312,0.00000684,0.00001571,0.000
 01416,-0.00001060,-0.00000883,0.00000638,-0.00000858,-0.00000030,-0.00
 002173,0.00000303,-0.00000071,0.00000397,-0.00000148,0.00000169,0.0000
 0606,0.00001156,-0.00000988,-0.00000340,-0.00000208,0.00000082,0.00000
 033,0.00000464,-0.00000623,-0.00000168,0.00000600,-0.00000101,0.002554
 94,-0.00570604,-0.00210097,0.00077584,0.00052649,0.00039448,0.00005938
 ,-0.00105659,-0.00036517,0.04551075,0.02271236,0.03097577,-0.04202526,
 0.02635142,-0.01344362,-0.16315305,0.07682250,-0.03881549,-0.01270699,
 -0.05998216,-0.03104699,-0.00051616,0.00071713,0.00010459,0.53879369,0
 .00012578,-0.00003029,0.00004136,-0.00009188,-0.00008265,0.00025501,-0
 .00004661,0.00008216,0.00001766,-0.00002392,0.00001797,-0.00002787,0.0
 0001221,-0.00001325,0.00000872,0.00002010,0.00001360,-0.00003792,-0.00
 007186,0.00000144,0.00003056,-0.00006540,-0.00020583,-0.00005723,0.000
 00254,0.00000613,-0.00000795,-0.00000300,0.00000151,0.00000825,-0.0000
 0764,-0.00000278,-0.00000081,0.00006768,0.00001696,-0.00014447,0.00001
 577,-0.00000213,-0.00000160,-0.00002851,0.00002683,-0.00000131,-0.0000
 0985,0.00000885,0.00000607,-0.00001614,-0.00000781,-0.00001302,0.00001
 995,0.00000430,-0.00000410,-0.00000101,-0.00000060,-0.00000283,-0.0000
 0748,-0.00000282,0.00000439,-0.00000072,0.00000207,-0.00000068,-0.0000
 0274,0.00000161,0.00000152,0.00000010,-0.00000269,0.00000049,-0.006073
 46,0.00161905,-0.00538473,0.00124786,0.00093111,0.00054770,0.00076289,
 -0.00216743,0.00025639,-0.02009973,-0.05643499,-0.03118543,0.02945061,
 -0.02095822,0.01196740,0.13300790,-0.29293540,0.00497032,-0.02459245,0
 .03956504,-0.00411710,0.00055454,-0.00013977,0.00072567,-0.05871934,0.
 68937453,0.00010837,0.00009781,0.00006168,-0.00012269,-0.00019246,0.00
 009078,-0.00012637,0.00003722,-0.00006644,0.00007473,0.00001131,0.0000
 3242,-0.00006353,0.00002024,-0.00002327,0.00002966,-0.00008444,0.00002
 487,0.00003840,-0.00001668,-0.00006174,-0.00006810,-0.00006787,-0.0000
 5997,-0.00000157,0.00000449,-0.00000889,0.00000625,0.00000853,-0.00000
 158,0.00001237,0.00000347,-0.00000091,-0.00002373,-0.00002264,0.000126
 82,-0.00000365,0.00004229,0.00000261,-0.00000531,-0.00001469,-0.000011
 35,0.00001003,-0.00000702,-0.00001930,-0.00000470,-0.00001431,-0.00000
 341,-0.00002593,-0.00000784,0.00001404,0.00000254,-0.00000224,0.000006
 71,-0.00000706,0.00002190,-0.00000755,-0.00000863,0.00000183,0.0000009
 0,0.00000291,0.00000528,-0.00000344,-0.00000231,0.00000640,-0.00000041
 ,-0.00346243,-0.00409493,0.00221591,-0.00024223,0.00075405,-0.00004046
 ,0.00055368,-0.00094133,-0.00069752,0.01646274,-0.00662950,0.01553517,
 -0.01214420,0.01044846,-0.00896723,-0.02067627,-0.02839082,-0.07932863
 ,-0.02000931,-0.02485897,-0.01226121,0.00030293,0.00063498,-0.00057579
 ,0.22705432,0.14782309,0.31750261,0.00002866,0.00004980,0.00000379,-0.
 00000016,-0.00002326,-0.00001546,-0.00000799,0.00002002,0.00000269,0.0
 0001109,-0.00002271,0.00000676,-0.00000137,-0.00001574,0.00000002,0.00
 002793,-0.00000787,0.00000153,0.00000673,-0.00000402,-0.00000331,-0.00
 002565,0.00001728,-0.00002114,0.00000039,0.00000256,-0.00000707,0.0000
 0531,0.00000590,0.00000109,0.00000579,0.00000209,0.00000420,0.00001815
 ,-0.00001792,0.00005758,-0.00000384,0.00004488,-0.00001543,-0.00002376
 ,-0.00000126,-0.00000649,0.00000545,-0.00000845,-0.00001864,0.00001712
 ,-0.00000112,0.00000597,-0.00001780,-0.00000430,0.00000766,0.00000271,
 -0.00000208,0.00000785,-0.00000978,0.00002121,-0.00000657,-0.00000899,
 0.00000729,0.00000277,0.00000072,0.00000648,-0.00000184,-0.00000143,0.
 00000508,0.00000081,-0.00132965,-0.00012529,0.00017665,-0.00046331,0.0
 0074538,0.00026963,0.00013878,-0.00011287,0.00011932,-0.00547631,0.001
 07586,-0.00427990,0.00239646,-0.00108750,-0.00276656,-0.26632808,0.023
 14348,-0.13468613,0.00035543,0.00019604,0.00077091,-0.00004278,0.00027
 638,-0.00037459,-0.00720427,-0.00031107,-0.00739414,0.27726649,-0.0000
 1144,-0.00000362,0.00001324,0.00000756,0.00000989,0.00000365,0.0000697
 2,0.00008502,0.00001996,-0.00001254,-0.00003320,-0.00000742,0.00002525
 ,-0.00000461,0.00000977,-0.00000045,0.00002849,0.00001005,0.00001192,-
 0.00000525,-0.00000963,-0.00002018,0.00001867,-0.00005068,-0.00000325,
 -0.00000299,-0.00000022,0.00000428,0.00000055,-0.00000018,0.00000521,0
 .00000173,-0.00000246,0.00002017,0.00008238,-0.00019090,0.00000610,-0.
 00003495,0.00003762,-0.00001840,0.00000069,0.00000315,0.00002519,0.000
 00707,-0.00000387,-0.00000336,-0.00002471,-0.00000201,0.00000739,0.000
 01866,-0.00000466,0.00000038,0.00000049,-0.00000700,0.00000750,-0.0000
 0618,-0.00000498,0.00000109,-0.00000371,0.00000150,-0.00000030,0.00000
 453,-0.00000146,-0.00000097,0.00000524,-0.00000335,-0.00352457,-0.0019
 9285,-0.00077917,0.00086145,0.00068136,0.00062619,0.00052196,0.0005385
 8,0.00020004,-0.02154552,0.00633154,-0.01218724,-0.00038940,-0.0042072
 8,-0.00329652,0.02279358,-0.06069455,0.00867852,0.00005766,-0.00091193
 ,-0.00004817,-0.00113240,0.00041976,-0.00074908,0.02476971,0.00251842,
 0.01462069,-0.02574773,0.06193010,-0.00003249,-0.00007503,0.00000283,-
 0.00002006,-0.00000386,-0.00000129,0.00010671,0.00002387,-0.00002557,-
 0.00005535,0.00004465,-0.00002541,0.00002091,0.00004213,0.00002162,-0.
 00007604,0.00003256,-0.00001581,-0.00002328,0.00000656,0.00000403,-0.0
 0001367,-0.00002608,0.00000831,0.00000536,-0.00000094,0.00001328,-0.00
 000986,-0.00001097,-0.00000204,-0.00000680,0.00000008,-0.00000890,-0.0
 0002402,0.00012846,-0.00037928,-0.00001066,-0.00012398,0.00005896,0.00
 003078,-0.00000917,0.00001779,0.00000737,0.00001924,0.00002295,0.00000
 499,-0.00002713,0.00001473,0.00003051,0.00003426,-0.00002508,-0.000006
 17,0.00000355,-0.00001772,0.00003259,-0.00004207,0.00000714,0.00002013
 ,-0.00001366,0.00000114,-0.00000214,-0.00000831,0.00000523,0.00000365,
 -0.00000499,-0.00000227,-0.00163525,-0.00152774,-0.00023505,0.00162416
 ,0.00169329,0.00010511,0.00035418,0.00043726,0.00007009,-0.01001052,0.
 00134772,-0.00370632,-0.00226402,-0.00311373,0.00359343,-0.13771567,0.
 00960550,-0.11863846,0.00059343,0.00001205,-0.00046541,-0.00062220,0.0
 0007983,0.00026843,0.00065418,-0.00054820,0.00432399,0.14910564,-0.008
 15385,0.11717294,-0.00004453,-0.00008635,-0.00002827,0.00008373,0.0001
 6067,0.00010813,0.00012280,-0.00000489,0.00005030,-0.00008468,-0.00001
 701,-0.00004284,0.00006797,-0.00003207,0.00002267,-0.00003852,0.000083
 20,-0.00005327,-0.00008958,0.00000712,0.00003682,-0.00007065,-0.000076
 70,0.00005005,0.00000147,-0.00000351,0.00000201,-0.00000663,-0.0000045
 0,0.00000799,-0.00000628,0.00000145,-0.00000288,0.00007532,0.00008938,
 -0.00027799,0.00000566,-0.00006751,0.00001609,-0.00002048,0.00002052,0
 .00000822,0.00000156,0.00001412,0.00001496,-0.00000287,-0.00001176,0.0
 0000222,0.00003428,0.00001809,-0.00001902,-0.00000162,0.00000245,-0.00
 001067,0.00000599,-0.00002194,0.00000667,0.00000668,-0.00000262,-0.000
 00085,-0.00000415,-0.00000108,0.00000314,0.00000174,-0.00000364,-0.000
 00126,-0.00270133,-0.00094106,-0.00110609,-0.00010442,0.00082062,-0.00
 015320,0.00020836,-0.00054263,-0.00002236,-0.03742223,-0.02154368,-0.0
 2482491,0.05127249,-0.02145665,0.01990103,-0.02264947,0.06633158,0.004
 33685,-0.14266097,-0.02371481,-0.05255538,0.00034754,0.00395888,-0.002
 76012,-0.25286591,-0.00859281,-0.11486205,0.00222077,0.00272135,-0.002
 19421,0.53738454,0.00014229,-0.00000610,-0.00006512,-0.00011137,-0.000
 00844,-0.00002711,0.00010684,0.00000786,0.00002583,-0.00000193,0.00005
 434,-0.00001360,-0.00001626,0.00003688,-0.00000413,-0.00008481,-0.0000
 2552,-0.00008022,-0.00021450,-0.00000562,0.00012591,0.00001729,-0.0001
 2204,0.00017503,0.00000347,0.00001740,0.00000961,-0.00000274,0.0000246
 3,0.00001467,0.00001640,0.00000590,0.00001377,0.00005133,0.00003785,-0
 .00010970,-0.00000689,0.00000391,0.00000587,-0.00003267,0.00002402,0.0
 0000161,0.00002137,0.00000540,-0.00001484,0.00001781,-0.00002214,0.000
 00125,-0.00000591,-0.00000406,0.00000399,0.00000055,-0.00000980,0.0000
 1125,-0.00000347,0.00000916,-0.00000298,-0.00000768,0.00000035,0.00000
 384,0.00000104,0.00001153,-0.00000653,-0.00000584,0.00001053,-0.000001
 95,0.00007628,-0.00290742,-0.00044031,-0.00081271,0.00060069,-0.000269
 77,0.00043519,0.00037995,0.00032071,-0.02205460,-0.00938850,-0.0136684
 0,0.01918212,-0.05289445,-0.00624497,0.02648057,0.02150178,0.02171160,
 -0.08085380,-0.24148119,-0.10230678,0.00386397,-0.00218276,-0.00065575
 ,0.04688653,-0.12356123,0.00914208,0.00323830,-0.00419206,-0.00215482,
 -0.04896390,0.61894857,0.00003152,-0.00015314,-0.00001494,0.00004439,0
 .00013420,0.00017790,0.00006182,-0.00004939,0.00000885,-0.00005790,-0.
 00000949,-0.00004851,0.00004988,-0.00003345,0.00001929,-0.00004231,0.0
 0007562,-0.00005111,-0.00015589,-0.00001571,0.00009407,-0.00002000,-0.
 00016802,0.00000771,-0.00000174,-0.00000534,-0.00000232,-0.00000687,0.
 00000076,0.00000866,-0.00000817,-0.00000603,-0.00000212,0.00007648,0.0
 0008375,-0.00006532,0.00000006,-0.00001675,0.,-0.00001524,0.00001176,0
 .00000881,-0.00000079,0.00000105,0.00000527,-0.00000136,-0.00000359,0.
 00000109,0.00000682,0.00000689,-0.00001285,0.00000135,0.00000198,-0.00
 000369,0.00000358,-0.00000349,-0.00000005,0.00000232,-0.00000036,-0.00
 000005,-0.00000227,0.00000049,0.00000095,0.00000107,-0.00000159,0.0000
 0024,-0.00167325,-0.00030146,-0.00155628,0.00007005,0.00042946,-0.0000
 4972,0.00019669,-0.00048308,0.00014872,-0.02502367,-0.01447975,-0.0253
 9019,0.03395748,-0.02999408,0.01477575,-0.00784714,0.04379120,0.013551
 58,-0.07073758,-0.06871397,-0.12802946,-0.00302958,-0.00033218,0.00570
 008,-0.09624661,-0.02298129,-0.13107652,-0.00256007,-0.00210135,0.0055
 3306,0.20096477,0.10616428,0.32835208,-0.00002274,0.00005697,0.0000095
 0,-0.00002546,-0.00003292,-0.00003027,0.00001456,0.00002252,0.00001148
 ,0.00000586,-0.00002057,0.00000203,0.00000244,-0.00000225,-0.00000021,
 0.00001704,-0.00000487,0.00000929,0.00001463,-0.00001430,-0.00001693,-
 0.00001140,0.00001376,0.00002286,-0.00000185,-0.00000003,-0.00000111,0
 .00000495,0.00000295,0.00000029,0.00000995,0.00000444,-0.00000166,0.00
 004010,0.00003007,-0.00005487,-0.00000523,-0.00000303,0.00000988,-0.00
 001893,0.00001275,0.00000925,0.00001272,0.00000143,-0.00000872,0.00001
 130,-0.00001560,0.00000110,-0.00000096,0.00000540,-0.00000176,0.000001
 12,-0.00000185,-0.00000121,0.00000007,0.00000483,-0.00000232,-0.000003
 07,-0.00000070,0.00000085,-0.00000071,0.00000477,-0.00000343,-0.000001
 70,0.00000438,-0.00000164,0.00024231,-0.00125799,-0.00022616,-0.000302
 13,0.00021523,0.00001740,0.00003502,0.00031617,0.00006452,0.00205476,0
 .00362323,-0.00192082,-0.00932387,-0.00058474,-0.00712573,0.00022717,-
 0.00026969,0.00055252,-0.26331369,0.02222774,-0.12709299,-0.00042365,-
 0.00039772,0.00202527,0.00233693,-0.00152849,-0.00287441,-0.00030311,-
 0.00010609,0.00038423,-0.00814392,0.00361801,-0.00549594,0.27679169,0.
 00009307,-0.00008854,-0.00005585,0.00001956,0.00004412,0.00001976,-0.0
 0003875,-0.00002148,-0.00000974,-0.00000010,0.00004083,-0.00000498,-0.
 00001408,0.00000617,-0.00000499,-0.00004487,0.00000831,-0.00003475,-0.
 00006203,0.00004282,0.00006763,0.00003644,0.00000027,-0.00002743,0.000
 00153,0.00000435,0.00000220,-0.00000633,0.00000480,0.00000280,-0.00001
 592,-0.00001371,0.00000717,-0.00003556,-0.00003509,0.00005699,0.000004
 41,0.00001444,-0.00001577,0.00001232,-0.00001003,-0.00001189,-0.000009
 72,-0.00000285,0.00000578,-0.00000634,0.00001903,-0.00000407,-0.000004
 07,-0.00000892,0.00000522,-0.00000108,-0.00000134,0.00000725,-0.000001
 51,-0.00000064,0.00000130,-0.00000035,0.00000204,-0.00000034,0.0000012
 6,-0.00000242,0.00000204,0.00000002,-0.00000195,0.00000148,0.00074366,
 0.00129294,0.00013467,0.00069191,-0.00057106,-0.00001071,-0.00018589,-
 0.00030975,-0.00010515,0.00273184,-0.00395912,-0.00141374,0.02517339,0
 .00100789,0.01454530,-0.00009477,-0.00113953,-0.00011741,0.02287323,-0
 .05895343,0.00601227,-0.00078359,0.00051093,0.00086538,-0.00076933,-0.
 00373725,-0.00367477,-0.00011910,0.00005159,0.00022099,-0.02160211,0.0
 0550633,-0.01203337,-0.02610989,0.06028259,-0.00014929,0.00015156,0.00
 002762,0.00000007,-0.00006782,-0.00001080,0.00003052,0.00001552,0.0000
 0382,0.00000231,-0.00004096,0.00000762,0.00000480,-0.00002276,-0.00000
 583,0.00007546,-0.00003279,0.00002809,0.00010581,0.00000406,-0.0000818
 9,-0.00005498,-0.00001465,0.00001479,-0.00000063,-0.00000550,-0.000001
 44,0.00000628,-0.00001220,-0.00000080,0.00000219,0.00001246,0.00000479
 ,0.00000543,0.00000010,0.00001000,-0.00000357,-0.00000736,0.00000696,-
 0.00000114,0.00000002,0.00000338,0.00000267,-0.00000024,-0.00000411,0.
 00000167,-0.00000416,0.00000378,0.00000105,0.00000209,-0.00000094,0.00
 000094,0.00000212,-0.00000519,-0.00000006,0.00000065,-0.00000094,0.000
 00137,-0.00000133,0.00000012,-0.00000011,0.00000056,-0.00000051,0.0000
 0067,0.00000033,-0.00000010,-0.00003966,-0.00038903,0.00071352,-0.0001
 4803,0.00024210,-0.00011562,0.00000405,0.00012059,-0.00003797,-0.00201
 534,-0.00124164,0.00537446,0.00082220,-0.00078219,0.00259803,0.0006923
 7,-0.00031831,-0.00058075,-0.12691374,0.00603113,-0.10847105,0.0018652
 7,0.00105783,-0.00266351,-0.00287153,-0.00402659,0.00351625,0.00040638
 ,0.00026714,-0.00064828,-0.01287696,0.00231824,-0.00362568,0.13998686,
 -0.00448917,0.10631477,-0.00001226,0.00000674,0.00001069,-0.00000051,-
 0.00000099,-0.00000580,-0.00000251,0.00000308,-0.00000258,-0.00000341,
 -0.00000859,-0.00000248,0.00000351,-0.00000155,0.00000217,0.00000249,0
 .00000477,0.00000610,0.00001101,-0.00000216,-0.00001345,-0.00000904,0.
 00000704,-0.00001884,-0.00000019,-0.00000076,-0.00000022,0.00000103,-0
 .00000019,-0.00000045,0.00000247,0.00000140,-0.00000216,0.00000230,0.0
 0000378,-0.00000559,-0.00000298,-0.00000077,0.00000315,-0.00000058,0.0
 0000054,0.00000216,0.00000438,0.00000013,-0.00000389,0.00000581,-0.000
 00380,0.00000031,-0.00000207,0.00000106,0.00000067,-0.00000058,-0.0000
 0042,-0.00000033,-0.00000040,0.00000231,-0.00000046,-0.00000085,0.0000
 0070,0.00000086,0.00000007,0.00000051,-0.00000044,-0.00000017,0.000001
 13,-0.00000034,0.00089567,0.00036282,0.00033767,-0.00015614,-0.0000442
 1,-0.00004498,-0.00013511,0.00049784,0.00023712,0.00091165,0.00373007,
 -0.00291498,-0.00087271,0.00071517,0.00011733,0.00925527,0.01373326,0.
 00812777,-0.00278532,0.00241982,-0.00477309,-0.00016776,-0.00016814,0.
 00043917,-0.09579069,-0.08133977,-0.06272586,-0.00055687,-0.00067314,0
 .00203151,-0.00620989,-0.02187103,-0.01297505,-0.00036975,-0.00120629,
 -0.00072300,0.09672639,0.00001869,0.00001519,0.00000868,0.00000605,0.0
 0001200,0.00002213,-0.00004599,-0.00001978,-0.00002152,0.00001882,-0.0
 0000866,0.00001371,-0.00000816,-0.00001487,-0.00000587,0.00002780,-0.0
 0001170,0.00000430,0.00000815,-0.00000212,-0.00000509,0.00001907,-0.00
 000001,-0.00003464,-0.00000198,0.00000007,-0.00000869,0.00000219,0.000
 00233,-0.00000007,-0.00000002,-0.00000134,0.00000074,-0.00000300,-0.00
 004951,0.00018114,0.00000760,0.00004960,-0.00002044,0.00000126,-0.0000
 0059,-0.00000786,-0.00000940,-0.00000801,-0.00000428,-0.00001445,0.000
 01454,-0.00000703,-0.00001408,-0.00001444,0.00000961,0.00000142,0.0000
 0031,0.00000523,-0.00000996,0.00001485,-0.00000183,-0.00000569,0.00000
 373,-0.00000154,0.00000094,0.00000025,-0.00000117,-0.00000051,-0.00000
 053,0.00000150,-0.00137245,0.00094882,-0.00152064,0.00042459,-0.000219
 66,0.00025312,0.00009757,-0.00096329,0.00000842,0.00432334,-0.00260173
 ,-0.00067420,0.00046711,-0.00001194,0.00057252,-0.01176492,-0.01800166
 ,-0.01376641,0.00204638,0.00141212,-0.00062166,-0.00020044,-0.00008993
 ,0.00017936,-0.08057858,-0.22540463,-0.11429069,-0.00072212,0.00026721
 ,0.00092321,0.00251164,0.00535793,0.00226554,0.00016295,0.00034357,0.0
 0014957,0.08475280,0.23789571,-0.00001178,-0.00001249,0.00000011,-0.00
 000388,-0.00000100,-0.00000322,0.00002119,-0.00000256,0.00000418,-0.00
 001034,0.00001554,-0.00000348,0.00000094,0.00001139,0.00000305,-0.0000
 1073,0.00000249,-0.00000182,0.00000226,0.00000334,-0.00000473,0.000007
 36,-0.00000314,0.00000774,0.00000213,-0.00000060,0.00000346,-0.0000030
 5,-0.00000466,-0.00000133,-0.00000331,0.00000032,-0.00000194,-0.000010
 73,0.00001945,-0.00006064,0.00000233,-0.00002458,0.00000560,0.00000861
 ,-0.00000498,0.00000058,-0.00000525,0.00000409,0.00000987,-0.00000385,
 0.00000138,0.00000307,0.00000953,0.00000593,-0.00000631,-0.00000067,0.
 00000199,-0.00000402,0.00000594,-0.00001124,0.00000267,0.00000560,-0.0
 0000259,-0.00000058,-0.00000060,-0.00000323,0.00000263,0.00000152,-0.0
 0000347,0.00000010,-0.00035173,-0.00001057,0.00069439,0.00002598,0.000
 03031,-0.00011777,0.00010863,0.00016556,-0.00018854,-0.00250076,-0.000
 88427,0.00542403,0.00010546,0.00062703,-0.00043622,0.00001521,0.001507
 99,0.00315554,-0.00455711,-0.00002063,0.00355110,0.00041493,0.00013608
 ,-0.00065747,-0.06387284,-0.11560846,-0.11452902,0.00202764,0.00105321
 ,-0.00253447,-0.00420840,-0.01267505,-0.00372485,-0.00032186,-0.000605
 03,-0.00012450,0.07137608,0.12528613,0.11111034,0.00001468,-0.00006516
 ,0.00000913,0.00002232,0.00004623,0.00003946,-0.00003287,-0.00001310,-
 0.00000727,-0.00000700,0.00000833,-0.00000205,-0.00000021,-0.00000669,
 -0.00000002,0.00000759,0.00002130,0.00000298,0.00001884,0.00000740,-0.
 00000178,0.00001648,0.00000153,-0.00004569,-0.00000045,-0.00000200,-0.
 00000177,-0.00000272,-0.00000337,-0.00000124,-0.00001171,-0.00001127,-
 0.00000259,-0.00003241,-0.00002911,0.00004538,0.00000634,0.00000468,-0
 .00000618,0.00001409,-0.00000913,-0.00000905,-0.00000981,0.00000027,0.
 00000661,-0.00001119,0.00000893,-0.00000152,0.00000282,-0.00000405,0.0
 0000174,-0.00000110,0.00000204,-0.00000002,-0.00000171,-0.00000404,0.0
 0000276,0.00000175,0.00000042,-0.00000139,0.00000059,-0.00000411,0.000
 00300,0.00000141,-0.00000373,0.00000087,-0.00077940,0.00086900,-0.0000
 9065,0.00022371,-0.00011835,0.00010853,0.00012209,-0.00016819,0.000070
 57,0.00009080,-0.00088373,-0.00000522,0.00002893,-0.00146984,-0.003818
 65,-0.00217510,-0.00003880,-0.00541210,0.00918555,-0.00763841,0.000693
 51,0.00038310,-0.00064468,0.00000366,-0.01373762,0.03004002,-0.0024997
 5,-0.00046469,0.00102850,0.00022270,-0.11487524,0.05789215,-0.00830432
 ,-0.00027592,-0.00221361,0.00061396,0.00011114,0.00013268,0.00210609,0
 .56337886,0.00000856,-0.00000455,0.00000060,-0.00000399,0.00001569,-0.
 00000124,-0.00000411,-0.00000525,-0.00000335,0.00000202,0.00000945,0.0
 0000212,-0.00000582,0.00000309,-0.00000119,0.00000268,-0.00000219,-0.0
 0000158,-0.00000040,0.00000292,-0.00000176,0.00001290,-0.00000313,-0.0
 0000922,0.00000087,0.00000071,-0.00000047,-0.00000106,-0.00000089,-0.0
 0000027,-0.00000226,-0.00000147,-0.00000055,-0.00001458,-0.00001969,0.
 00003248,0.00000218,0.00000500,-0.00000241,0.00000577,-0.00000515,-0.0
 0000438,-0.00000430,0.00000026,0.00000162,-0.00000405,0.00000160,-0.00
 000155,0.00000046,-0.00000303,0.00000145,-0.00000040,0.00000080,0.0000
 0041,-0.00000174,-0.00000060,0.00000120,0.00000041,0.00000028,-0.00000
 058,0.00000042,-0.00000156,0.00000132,0.00000053,-0.00000145,0.0000004
 1,-0.00081262,0.00083246,0.00001832,0.00017804,-0.00002763,0.00006678,
 0.00006850,-0.00010844,0.00001232,0.00016401,-0.00248310,-0.00071814,-
 0.00128644,0.00076553,-0.00284137,-0.00167224,0.00449451,-0.00234408,0
 .01277312,-0.02776922,-0.00204986,0.00031921,-0.00035943,0.00020052,0.
 00971574,-0.00456706,0.00268983,-0.00039318,0.00042615,0.00012425,0.05
 203382,-0.18364441,-0.00251821,0.00036172,0.00066767,0.00176151,-0.001
 73481,0.00030134,0.00075098,0.02994365,0.49989292,0.00001514,-0.000025
 87,0.00000948,-0.00001159,-0.00000880,-0.00000694,0.00000908,0.0000169
 1,0.00000236,-0.00000530,0.00000164,-0.00000462,0.00000693,0.00000298,
 0.00000223,-0.00000787,0.00001600,-0.00000073,-0.00000690,-0.00000528,
 0.00000386,-0.00002058,-0.00001382,0.00001837,-0.00000051,0.00000118,0
 .00000109,0.00000016,0.00000271,0.00000080,0.00000138,-0.00000160,-0.0
 0000011,0.00001818,0.00002889,-0.00005199,-0.00000236,-0.00000749,0.00
 000479,-0.00000819,0.00000450,0.00000580,0.00000453,-0.00000019,-0.000
 00028,0.00000620,-0.00000442,-0.00000028,0.00000028,0.00000489,-0.0000
 0359,0.00000082,-0.00000074,-0.00000023,0.00000327,-0.00000074,-0.0000
 0181,0.00000008,-0.00000070,0.00000072,-0.00000059,0.00000196,-0.00000
 106,-0.00000047,0.00000155,-0.00000039,0.00052714,-0.00061503,-0.00044
 808,0.00014415,0.00011111,0.00003728,0.00010442,0.00014247,0.00009640,
 -0.00044151,0.00048730,-0.00049191,-0.00463179,-0.00436076,0.00417711,
 -0.00434678,-0.00158096,0.00215642,0.00654578,-0.01471187,0.00600687,0
 .00052473,-0.00062453,-0.00001831,-0.00785399,0.01468076,0.00331035,-0
 .00016981,0.00063516,-0.00000971,-0.00770028,-0.00359775,-0.07807306,0
 .00254029,0.00057671,-0.00270534,0.00069674,0.00116842,-0.00152335,0.0
 1773866,0.01489532,0.55642097,-0.00001663,0.00003489,-0.00000706,-0.00
 000430,-0.00002619,-0.00001761,0.00001257,0.00001074,0.00000469,0.0000
 0087,-0.00000825,0.00000078,0.00000242,0.00000049,0.00000003,0.0000068
 8,-0.00000603,0.00000313,0.00000156,0.,0.00000451,-0.00001875,0.000003
 50,0.00002054,0.00000007,-0.00000025,0.00000101,0.00000156,-0.00000104
 ,0.00000044,0.00000289,0.00000440,0.00000195,0.00001271,0.00001652,-0.
 00003055,-0.00000363,-0.00000675,0.00000474,-0.00000591,0.00000294,0.0
 0000416,0.00000481,0.00000014,-0.00000247,0.00000584,-0.00000548,0.000
 00169,0.00000028,0.00000334,-0.00000217,0.00000062,-0.00000020,-0.0000
 0095,0.00000134,0.00000030,-0.00000117,0.00000002,-0.00000034,0.000000
 66,-0.00000039,0.00000152,-0.00000078,-0.00000014,0.00000137,-0.000000
 38,0.00039877,-0.00069104,0.00024368,-0.00014306,0.00011530,-0.0000695
 4,-0.00001371,0.00015296,-0.00001755,0.00030998,0.00106847,0.00053175,
 -0.00075532,0.00024624,0.00014800,0.00005934,-0.00145221,0.00038233,-0
 .00013040,-0.00036349,-0.00044485,-0.00001673,0.00003364,0.00000737,-0
 .00105175,0.00143767,0.00009929,0.00004218,0.00000646,-0.00007843,0.00
 817432,0.01056651,-0.01182150,0.00012724,0.00002100,0.00013740,-0.0000
 9450,-0.00012855,-0.00028816,-0.09678529,-0.06900624,0.07502803,0.1023
 0191,-0.00001404,-0.00001516,0.00000579,0.00002057,0.00002599,0.000028
 93,-0.00001798,-0.00001774,-0.00000756,-0.00000514,0.00000124,0.000000
 25,0.00000165,-0.00000726,-0.00000059,0.00001440,0.00000757,0.00000469
 ,0.00001942,0.00000478,-0.00000836,0.00001140,0.00000611,-0.00003910,0
 .00000033,-0.00000364,-0.00000156,-0.00000235,-0.00000653,-0.00000113,
 -0.00000748,-0.00000274,-0.00000204,-0.00002714,-0.00002095,0.00004890
 ,0.00000538,0.00000046,-0.00000577,0.00001492,-0.00000904,-0.00000649,
 -0.00001186,-0.00000041,0.00000756,-0.00001193,0.00001144,0.00000013,0
 .00000331,-0.00000264,0.00000006,-0.00000059,0.00000302,-0.00000224,-0
 .00000023,-0.00000474,0.00000239,0.00000344,-0.00000023,-0.00000134,0.
 00000023,-0.00000445,0.00000299,0.00000196,-0.00000456,0.00000124,-0.0
 0055745,0.00089129,-0.00005803,0.00020752,-0.00018038,0.00003436,0.000
 04530,-0.00023700,-0.00002628,0.00040322,-0.00026612,0.00018759,0.0006
 1989,0.00017511,-0.00146301,0.00064279,-0.00049829,-0.00110149,0.00208
 655,-0.00080923,0.00044123,0.00002571,-0.00014012,0.00004476,-0.001117
 63,0.00054809,-0.00133844,-0.00000683,-0.00005169,0.00004947,-0.010355
 86,-0.02102762,0.01799645,-0.00048202,-0.00027925,0.00053653,-0.000116
 04,-0.00000407,0.00066244,-0.07179760,-0.14132729,0.10735308,0.0747382
 5,0.15590211,0.00000838,-0.00000176,0.00000168,-0.00000911,-0.00000667
 ,-0.00000712,-0.00000101,0.00000340,-0.00000036,0.00000303,0.00000282,
 0.00000037,-0.00000315,0.00000304,-0.00000109,-0.00000565,-0.00000285,
 -0.00000095,-0.00000438,-0.00000053,-0.00000355,0.00000808,0.00000001,
 0.00000194,0.00000012,0.00000173,0.00000059,0.00000038,0.00000213,0.00
 000036,0.00000105,-0.00000043,0.00000046,0.00000130,-0.00000444,0.0000
 0069,-0.00000125,0.00000367,-0.00000079,-0.00000192,0.00000186,-0.0000
 0024,0.00000242,0.00000014,-0.00000296,0.00000240,-0.00000145,0.000000
 08,-0.00000217,-0.00000146,0.00000179,-0.00000017,-0.00000127,0.000001
 77,-0.00000124,0.00000215,-0.00000045,-0.00000138,0.00000055,0.0000006
 9,0.00000040,0.00000109,-0.00000071,-0.00000067,0.00000145,-0.00000008
 ,0.00007380,-0.00002684,0.00000663,-0.00004150,0.00000801,0.00000303,-
 0.00002183,0.00001308,0.00000246,0.00045877,0.00010632,0.00024853,-0.0
 0038442,0.00057268,-0.00050625,-0.00020426,-0.00046892,-0.00000417,0.0
 0022622,-0.00133368,-0.00071316,-0.00004263,-0.00001884,0.00005048,-0.
 00046338,0.00066562,0.00090621,-0.00000694,0.00002778,-0.00000575,-0.0
 0194080,-0.00032470,0.00178772,-0.00011611,-0.00008612,0.00009563,-0.0
 0002804,0.00012856,-0.00034717,0.07633345,0.10506904,-0.15962370,-0.08
 381182,-0.11598241,0.17078870,-0.00001051,0.00004577,-0.00000528,-0.00
 000859,-0.00002403,-0.00001975,0.00001311,0.00001275,0.00000597,0.0000
 0686,-0.00001330,0.00000321,0.00000042,-0.00000146,-0.00000068,0.00000
 713,-0.00001171,0.00000348,0.00000173,-0.00000342,-0.00000041,-0.00001
 677,0.00000360,0.00002029,-0.00000106,-0.00000008,-0.00000042,0.000003
 00,0.00000236,0.00000044,0.00000735,0.00000544,0.00000140,0.00001687,0
 .00000996,-0.00001328,-0.00000353,0.00000017,0.00000542,-0.00000947,0.
 00000523,0.00000401,0.00000706,0.00000029,-0.00000597,0.00000631,-0.00
 000752,0.00000035,-0.00000242,0.00000130,0.00000060,0.00000095,-0.0000
 0117,-0.00000019,-0.00000030,0.00000375,-0.00000173,-0.00000182,-0.000
 00067,0.00000055,-0.00000002,0.00000311,-0.00000234,-0.00000121,0.0000
 0283,-0.00000081,0.00019374,-0.00053439,0.00024865,-0.00008014,0.00013
 339,-0.00004579,0.00001410,0.00019430,0.00001363,0.00030961,0.00028141
 ,0.00029145,0.00013287,0.00046024,-0.00015104,-0.00021922,-0.00076483,
 -0.00084300,0.00075165,-0.00191785,-0.00081177,-0.00003259,0.00000820,
 0.00002727,-0.00052570,0.00327683,0.00068124,-0.00011745,0.00020288,0.
 00009578,-0.01297824,-0.00257701,-0.00401253,0.00048163,0.00065335,0.0
 0084642,0.00015183,-0.00010322,0.00025211,-0.29454558,-0.02689910,-0.0
 6687141,-0.01278104,-0.00148407,-0.00398917,0.31844343,0.00002142,-0.0
 0003070,0.00000022,-0.00000134,0.00001575,0.00000267,-0.00000590,-0.00
 000659,-0.00000332,-0.00000062,0.00001064,-0.00000155,-0.00000259,0.00
 000362,-0.00000032,-0.00001529,0.00000474,-0.00000682,-0.00001081,0.00
 000108,0.00000457,0.00001474,-0.00000191,-0.00000353,0.00000023,0.0000
 0145,0.00000064,-0.00000163,0.00000250,0.00000033,-0.00000176,-0.00000
 332,0.00000052,-0.00000864,-0.00000843,0.00001172,0.00000099,0.0000030
 8,-0.00000284,0.00000342,-0.00000159,-0.00000231,-0.00000171,0.,0.0000
 0095,-0.00000220,0.00000287,-0.00000015,-0.00000103,-0.00000220,0.0000
 0160,-0.00000044,-0.00000059,0.00000160,-0.00000034,-0.00000001,0.0000
 0043,-0.00000019,0.00000024,-0.00000006,0.00000035,-0.00000047,0.00000
 018,-0.00000020,-0.00000025,0.00000019,-0.00010037,0.00030050,-0.00006
 875,0.00000132,-0.00006643,0.00001251,-0.00002482,-0.00008640,-0.00002
 128,0.00005354,0.00000116,-0.00008294,-0.00012393,0.00020910,0.0001141
 7,0.00101700,0.00016714,0.00125351,0.00119431,0.00084874,0.00117983,-0
 .00003262,0.00002633,0.00000092,0.00167596,-0.00537551,-0.00114477,0.0
 0014901,-0.00037801,-0.00001338,0.02999850,0.00364310,0.00871146,-0.00
 051501,-0.00063842,-0.00073842,0.00016675,0.00003017,-0.00002906,-0.03
 050944,-0.05174417,-0.01001318,-0.01854249,-0.00213758,-0.00675388,0.0
 2915867,0.05734081,-0.00002481,0.00003979,-0.00001316,0.00000723,-0.00
 000904,-0.00000518,0.00000491,0.00000132,0.00000193,0.00000276,-0.0000
 1031,0.00000207,0.00000062,-0.00000585,-0.00000188,0.00001747,-0.00000
 922,0.00000178,0.00000829,0.00000251,0.00000968,-0.00001342,0.00000443
 ,0.00000353,-0.00000035,-0.00000196,-0.00000033,0.00000118,-0.00000296
 ,0.00000107,0.00000022,0.00000340,0.00000303,0.00000362,0.00000123,0.0
 0000515,-0.00000066,-0.00000112,0.00000147,-0.00000182,0.00000011,0.00
 000097,0.00000041,-0.00000023,-0.00000116,0.00000049,-0.00000068,0.000
 00071,0.00000015,0.00000039,-0.00000045,0.00000056,0.00000063,-0.00000
 120,-0.00000008,0.00000035,-0.00000041,0.00000044,-0.00000035,-0.00000
 001,-0.00000009,0.00000046,-0.00000017,0.00000019,0.00000006,0.0000000
 6,-0.00008429,0.00006612,0.00007238,0.00000003,0.00002249,-0.00000285,
 -0.00000325,0.00002301,-0.00000768,-0.00000644,-0.00029839,-0.00012839
 ,0.00018533,0.00026936,-0.00019999,-0.00035816,0.00039198,0.00030353,0
 .00090231,-0.00077215,0.00014789,-0.00000100,0.00001819,-0.00001587,-0
 .00033423,-0.00011903,0.00110486,0.00004233,0.00008281,-0.00009081,-0.
 00090405,0.00108080,-0.00189068,-0.00009706,-0.00027474,0.00027459,0.0
 0035336,0.00006995,0.00008933,-0.06696336,-0.00936967,-0.06656185,0.02
 194466,0.00182634,0.00658046,0.07407045,0.00933978,0.06619073,0.000005
 64,-0.00000034,0.00000472,-0.00000806,-0.00001145,-0.00000677,0.000005
 66,0.00000560,0.00000296,0.00000008,0.00000053,-0.00000108,0.00000023,
 0.00000456,0.00000152,-0.00000936,-0.00000094,0.00000020,-0.00000644,-
 0.00000193,-0.00000671,-0.00000257,-0.00000129,0.00001054,0.00000016,0
 .00000128,0.00000078,0.00000056,0.00000194,-0.00000041,0.00000282,0.00
 000115,-0.00000131,0.00001056,0.00001275,-0.00002872,-0.00000204,-0.00
 000327,0.00000268,-0.00000451,0.00000343,0.00000287,0.00000397,0.00000
 058,-0.00000183,0.00000453,-0.00000428,0.00000032,-0.00000023,0.000002
 06,-0.00000106,0.,-0.00000096,0.00000034,0.00000080,0.00000051,-0.0000
 0062,-0.00000071,0.,0.00000067,-0.00000018,0.00000119,-0.00000079,-0.0
 0000052,0.00000140,-0.00000042,0.00035226,-0.00056509,0.00008081,-0.00
 011007,0.00007034,-0.00005677,-0.00002786,0.00008940,0.00000308,-0.000
 23999,0.00057272,0.00020399,0.00072113,0.00007022,-0.00011690,0.000299
 05,-0.00068539,0.00002392,-0.00137583,0.00135521,-0.00059514,-0.000068
 16,0.00009881,-0.00001953,0.00020268,0.00155859,0.00030452,0.00000226,
 -0.00004531,0.00000223,0.00074177,0.00536350,0.01437709,0.00024386,0.0
 0021096,0.00022094,-0.00052764,-0.00004183,-0.00044159,-0.05010234,-0.
 00400208,-0.01166340,0.00047411,0.00698978,0.01398622,0.00085741,-0.01
 358788,-0.02875362,0.04864053,0.00001312,-0.00001540,0.00002200,-0.000
 01331,0.00000569,0.00001721,-0.00001806,-0.00000461,-0.00000921,0.0000
 0181,0.00000131,0.00000112,-0.00000123,-0.00000360,-0.00000098,0.00000
 578,0.00000484,0.00000482,0.00000485,-0.00000267,-0.00002078,0.0000198
 6,-0.00001178,-0.00003414,-0.00000027,0.00000058,-0.00000314,0.0000001
 3,0.00000125,-0.00000092,-0.00000004,-0.00000146,-0.00000252,-0.000007
 49,-0.00002287,0.00006661,0.00000214,0.00001822,-0.00000869,0.00000458
 ,-0.00000082,-0.00000352,-0.00000409,-0.00000254,-0.00000099,-0.000005
 28,0.00000728,-0.00000270,-0.00000475,-0.00000577,0.00000458,-0.000000
 53,-0.00000016,0.00000162,-0.00000388,0.00000516,0.00000006,-0.0000019
 9,0.00000159,-0.00000060,0.00000049,-0.00000087,0.,-0.00000007,-0.0000
 0068,0.00000060,-0.00020191,0.00061920,-0.00044315,0.00015819,-0.00015
 912,0.00010604,0.00007174,-0.00014864,0.00009226,0.00009029,-0.0000005
 3,-0.00006772,-0.00114568,-0.00114071,0.00037176,-0.00034325,-0.000397
 17,0.00055195,0.00371817,-0.00293619,0.00061840,0.00017848,-0.00028793
 ,0.00003802,-0.00179753,0.00081202,-0.00016081,0.00002546,0.00003224,-
 0.00003961,-0.00179657,-0.01586663,-0.02655007,0.00030417,0.00021878,-
 0.00028233,0.00086889,0.00050851,-0.00003214,-0.00408515,-0.09510015,-
 0.10474402,0.00167763,0.00968355,0.01843872,-0.00017513,-0.00211271,-0
 .00234071,0.00243371,0.10641131,-0.00000464,-0.00000208,0.00000491,0.0
 0000417,0.00000328,0.00000871,-0.00000425,-0.00000321,-0.00000003,-0.0
 0000202,-0.00000207,0.00000132,0.00000216,-0.00000249,0.00000102,0.000
 00510,0.00000308,0.00000436,0.00000760,-0.00000049,-0.00000841,0.00000
 508,0.00000186,-0.00001127,0.00000004,-0.00000100,-0.00000142,-0.00000
 010,-0.00000142,-0.00000138,-0.00000046,0.00000017,-0.00000221,-0.0000
 0586,-0.00000730,0.00001427,0.00000235,0.00000233,-0.00000192,0.000003
 63,-0.00000160,-0.00000114,-0.00000322,-0.00000061,0.00000269,-0.00000
 350,0.00000342,-0.00000138,0.00000132,-0.00000030,0.00000012,-0.000000
 35,0.00000095,-0.00000103,-0.00000030,-0.00000079,0.00000087,0.0000004
 0,0.00000018,-0.00000088,-0.00000025,-0.00000154,0.00000072,0.00000054
 ,-0.00000158,0.00000010,0.00000121,0.00022606,-0.00014290,0.00006278,-
 0.00007326,0.00003189,-0.00000159,-0.00004673,0.00002994,0.00038902,0.
 00030348,0.00032034,-0.00038904,0.00054626,-0.00014121,0.00021016,-0.0
 0069612,0.00028398,0.00037048,0.00007166,0.00000480,0.00001839,0.00002
 227,-0.00002511,-0.00125156,0.00080723,0.00057274,0.00001798,-0.000036
 09,-0.00002960,-0.00005572,0.00168297,0.00374520,0.00007420,0.00015813
 ,0.00008537,0.00059384,0.00003394,-0.00010666,-0.01114112,-0.10596753,
 -0.26241488,-0.00181588,-0.00942955,-0.01928481,0.00035102,-0.00180942
 ,-0.00585950,0.01255848,0.11428707,0.28282963,0.00026400,-0.00134143,-
 0.00079674,-0.00144800,-0.00047867,0.00063318,-0.02640984,-0.03437525,
 0.01136299,-0.00378323,0.00363393,0.00038263,-0.00076610,-0.00103962,-
 0.00173742,-0.00014626,-0.00040876,-0.00015318,-0.00006885,0.00009532,
 0.00016957,-0.00127458,-0.00063167,0.00069024,-0.00013800,-0.00027906,
 0.00040523,-0.00047602,-0.00005201,-0.00030096,-0.00018680,-0.00008066
 ,0.00012863,0.01044676,0.00219495,-0.00047928,-0.00484158,0.00414934,0
 .00220091,-0.00065385,0.00248912,0.00018836,0.00130120,-0.00017460,-0.
 00070041,0.00073003,0.00209619,-0.00116233,0.00018346,0.00043074,-0.00
 038704,0.00008605,0.00016845,-0.00026463,-0.00016720,0.00065846,-0.000
 34550,0.00001691,-0.00007648,0.00004953,-0.00011240,0.00008776,-0.0001
 5989,0.00004818,0.00015578,-0.00011802,-0.07085011,-0.01268218,-0.0349
 3520,-0.00765721,-0.01151549,0.03182042,0.00547588,-0.00282279,-0.0214
 0389,0.00794682,0.00634679,-0.00190097,0.00034825,-0.00186694,-0.00017
 432,-0.00055333,0.00001485,-0.00132165,0.00040102,0.00005061,0.0006512
 7,0.00011145,-0.00004053,-0.00014572,-0.00055464,0.00027292,0.00050013
 ,0.00024729,0.00060053,0.00004210,0.00031008,-0.00004240,0.00024580,0.
 00006386,-0.00013360,-0.00001023,-0.00006799,0.00002862,0.00007569,0.0
 0006769,0.00009552,-0.00008398,-0.00003068,0.00003656,-0.00001282,0.00
 000451,-0.00000454,0.00001820,-0.00002716,-0.00003006,-0.00001507,0.54
 350253,-0.00060024,0.00037543,-0.00037555,0.00405894,-0.00261228,-0.00
 084023,-0.01910507,-0.00848976,-0.00111151,0.00100986,0.00260622,0.000
 26127,-0.00084482,0.00014917,-0.00055239,0.00060649,-0.00014297,0.0000
 7560,-0.00018217,0.00000372,0.00017475,0.00001609,0.00080209,0.0007982
 8,0.00021405,0.00023893,0.00035219,-0.00014426,0.00003237,0.00004433,-
 0.00002415,0.00008953,0.00008202,-0.01311613,-0.03879638,0.02735506,-0
 .00259117,-0.00064144,-0.00025934,0.00625185,-0.00173371,-0.00145453,-
 0.00088875,-0.00044496,0.00068308,-0.00014459,-0.00141161,0.00064921,-
 0.00098506,-0.00142293,0.00151638,-0.00025935,0.00013822,0.00010249,-0
 .00012601,0.00019536,0.00019480,0.00007251,-0.00003066,-0.00010560,0.0
 0032795,-0.00062202,0.00002733,0.00006703,-0.00013854,0.00002436,-0.03
 075573,-0.05213277,0.01224249,-0.01147237,0.00374663,0.01977302,-0.000
 23892,0.00731741,-0.01504947,0.00587796,-0.00018274,0.01611305,-0.0045
 3243,-0.00333980,-0.00043579,0.00114587,-0.00015410,0.00194820,0.00155
 464,-0.00185578,-0.00093282,-0.00006775,-0.00002868,0.00033186,0.00008
 367,0.00086567,-0.00016441,0.00031727,0.00074028,0.00067203,0.00109251
 ,0.00106617,0.00069108,0.00043211,-0.00041143,-0.00015695,0.00003273,-
 0.00043237,0.00005337,-0.00027445,-0.00022017,0.00027115,0.00014625,-0
 .00027911,0.00000238,0.00012117,-0.00007091,-0.00001426,0.00014563,-0.
 00019892,-0.00007363,0.20787994,0.32937623,0.00040672,0.00057745,0.000
 44457,-0.00066946,-0.00126523,0.00005342,-0.00625737,-0.00804059,0.005
 94506,-0.00133188,0.00058673,0.00214329,-0.00097307,0.00014233,-0.0007
 7895,0.00045333,-0.00081517,0.00022351,0.00016900,-0.00004327,-0.00016
 099,-0.00064037,0.00022145,-0.00125588,0.00001767,0.00002259,-0.000038
 00,-0.00001851,0.00001707,-0.00031233,0.00004973,0.00002934,-0.0000147
 6,0.00707853,0.01642202,-0.00829728,0.00304861,-0.00052731,-0.00159948
 ,-0.00237867,0.00239211,0.00316236,-0.00025756,-0.00020577,0.00068810,
 -0.00076710,-0.00060411,0.00012686,-0.00008959,0.00071401,-0.00052873,
 -0.00013655,-0.00040181,0.00009140,0.00044865,-0.00014025,-0.00014691,
 -0.00016192,0.00011183,-0.00001486,-0.00033552,0.00020174,-0.00029449,
 -0.00012063,-0.00004144,0.00003841,0.01600416,0.00573039,-0.11477462,-
 0.00138208,0.00934013,-0.01242050,-0.00398359,0.00572111,-0.01401448,0
 .00118480,-0.00147882,-0.00620226,0.00161762,0.00250235,0.00043536,-0.
 00149805,0.00174558,-0.00097197,-0.00080171,0.00115436,0.00124604,0.00
 105764,-0.00018870,-0.00047830,-0.00076223,0.00035129,0.00060939,0.000
 42692,-0.00034061,-0.00163686,-0.00038265,-0.00047463,-0.00040783,-0.0
 0034242,0.00033519,0.00004156,-0.00015451,0.00057940,-0.00011723,0.000
 41022,0.00029407,-0.00035739,-0.00019954,0.00030021,-0.00000009,-0.000
 12556,0.00005452,-0.00000066,-0.00015147,0.00022687,0.00008978,0.15099
 002,-0.09630694,0.37309265,0.00002222,0.00016275,0.00014043,0.00014840
 ,-0.00010208,-0.00016566,0.00138812,-0.00374001,-0.00116980,-0.0012137
 1,0.00026992,0.00003430,0.00009302,-0.00049432,0.00011909,-0.00000071,
 0.00002563,0.00002221,-0.00004396,0.00000448,-0.00000080,-0.00001777,-
 0.00004575,-0.00014347,0.00008498,-0.00001604,-0.00004517,-0.00008997,
 0.00001213,-0.00006662,0.00000207,0.00001057,-0.00003726,0.00018132,0.
 00118793,0.00010343,0.00018066,0.00043072,-0.00024475,-0.00005870,-0.0
 0021085,0.00011880,-0.00012274,0.00015780,-0.00014252,0.00005845,0.001
 12128,0.00060922,-0.00012139,0.00001981,-0.00003046,-0.00000660,0.0000
 1116,0.00005355,-0.00000809,-0.00003072,0.00002575,-0.00000212,0.00003
 122,0.00002376,-0.00001083,-0.00000251,-0.00000500,0.00000197,-0.00000
 474,0.00001667,0.00610420,0.00288727,0.00117209,-0.00201851,-0.0007985
 2,0.00124331,0.00098593,0.00104669,0.00548515,-0.00045098,-0.00000751,
 -0.00022542,-0.00002317,-0.00003250,-0.00004578,-0.00005602,-0.0002517
 5,-0.00007734,0.00000471,-0.00004036,-0.00004023,-0.00005745,0.0000403
 4,0.00000452,0.00004502,-0.00000455,0.00002492,0.00022303,0.00001794,0
 .00013742,-0.00000680,0.00002244,-0.00002326,0.00001421,-0.00001109,0.
 00001173,0.00001691,-0.00002984,-0.00000394,-0.00002230,-0.00000857,0.
 00001758,0.00001186,-0.00002261,0.00000552,0.00001156,-0.00000371,0.00
 000243,0.00000750,-0.00000688,-0.00000818,-0.32681138,-0.08054629,-0.1
 5726913,0.33999538,-0.00018196,-0.00011105,-0.00030671,0.00078534,-0.0
 0040316,-0.00008528,-0.00072780,-0.00290486,0.00158002,-0.00056940,0.0
 0069043,0.00015752,-0.00007652,-0.00002220,-0.00019662,-0.00003071,0.0
 0007106,0.00003967,-0.00001361,0.00002006,-0.00000817,-0.00013958,0.00
 029908,0.00036221,-0.00003377,-0.00005200,0.00006235,-0.00007319,-0.00
 001914,-0.00002023,-0.00001510,0.00001063,0.00005590,-0.00086095,0.000
 88873,-0.00141318,-0.00027162,-0.00093760,0.00056317,-0.00025910,-0.00
 017706,0.00060310,0.00066750,-0.00020920,0.00013803,0.00110419,-0.0014
 5519,-0.00159623,-0.00024668,0.00058884,-0.00019872,0.00012829,0.00008
 293,-0.00016553,0.00032770,0.00020401,-0.00035986,-0.00002986,-0.00000
 042,0.00002690,-0.00002904,0.00006783,-0.00004007,0.00000135,0.0000812
 5,-0.00008172,0.00947292,0.00375394,-0.00575926,-0.00086380,-0.0021000
 0,0.00081646,-0.00052719,0.00110591,0.00019556,-0.00123217,-0.00086685
 ,0.00237718,-0.00005624,-0.00035320,-0.00023618,0.00074391,-0.00016780
 ,0.00053039,0.00004387,-0.00013032,-0.00035489,-0.00019801,-0.00001344
 ,0.00011485,0.00008581,-0.00009305,-0.00040896,-0.00024442,-0.00056216
 ,0.00041281,0.00006476,0.00004369,0.00004638,0.00004942,-0.00005508,0.
 00000951,0.00003405,-0.00009495,0.00000813,-0.00010976,-0.00008438,0.0
 0006106,0.00004314,-0.00005669,0.00000230,0.00000959,-0.00000140,-0.00
 000662,0.00003796,-0.00003711,-0.00000744,-0.06339826,-0.04159585,0.00
 063548,0.08294541,0.05354846,-0.00011759,-0.00015219,-0.00001937,0.000
 08625,0.00016395,-0.00010755,0.00199236,0.00400031,-0.00119332,0.00093
 051,-0.00029249,-0.00004337,0.00017772,0.00032651,0.00036562,-0.000115
 87,0.00017477,-0.00000484,0.00003514,-0.00000542,-0.00000324,-0.000200
 83,0.00013520,0.00002123,-0.00002206,0.00001453,-0.00005899,0.00009649
 ,0.00000277,0.00007076,0.00003094,0.00000828,-0.00001385,0.00028036,0.
 00090586,-0.00215866,-0.00048165,-0.00081219,0.00093658,-0.00026088,0.
 00026470,-0.00003830,0.00026532,0.00044973,-0.00022204,0.00075486,-0.0
 0094139,-0.00064833,0.00027130,0.00021036,-0.00022261,0.00006790,0.000
 01905,-0.00006372,-0.00008959,-0.00009239,0.00002658,0.00001403,0.0000
 0607,0.00004907,-0.00001903,0.00006096,-0.00000852,0.00000105,0.000062
 47,-0.00005304,-0.02898162,-0.00276736,-0.02227520,0.00342930,-0.00053
 196,0.00493351,0.00071084,-0.00012312,-0.00506349,0.00095254,0.0011160
 8,-0.00070570,0.00003477,-0.00012613,-0.00005173,-0.00033006,-0.000064
 17,-0.00030395,-0.00001320,-0.00007679,0.00005649,0.00006593,-0.000055
 19,-0.00005300,0.00006442,0.00014201,0.00016567,0.00004898,0.00032548,
 0.00021795,0.00011563,-0.00001169,0.00001704,0.00001335,-0.00002152,0.
 00001294,-0.00001690,-0.00003467,0.00003167,-0.00001517,0.00000989,0.0
 0002138,0.00001312,-0.00002366,0.00000175,0.00001463,-0.00000959,0.000
 00138,0.00000825,-0.00002408,-0.00001168,-0.14310968,-0.01250367,-0.11
 039976,0.15123182,0.01196669,0.12682127,0.00645534,0.00519807,0.001488
 70,-0.03304703,0.01592881,-0.01130071,-0.19013958,0.00349757,-0.043816
 64,-0.02582071,-0.01885758,-0.00473543,0.00757201,-0.00362326,0.000979
 38,-0.00183204,0.00023393,-0.00006671,0.00014995,-0.00038918,-0.000179
 54,0.00001915,-0.00132820,0.00030695,0.00007986,0.00187340,0.00023271,
 0.00050577,0.00038442,-0.00028656,0.00012012,-0.00000304,0.00016166,-0
 .13161585,0.04783507,0.00004452,-0.02313752,0.02874909,-0.00383069,0.0
 1399077,0.00129182,-0.00355281,-0.00217990,-0.00141460,0.00644467,-0.0
 0113217,-0.00014325,-0.00093141,0.00355582,-0.00430120,0.00442272,-0.0
 0113832,-0.00164796,-0.00061812,-0.00203084,-0.00003886,0.00078048,-0.
 00039490,0.00104328,-0.00013068,0.00060726,-0.00106472,0.00027323,-0.0
 0014285,-0.00031044,-0.00035742,-0.00120494,-0.00888873,0.03711483,0.0
 0170502,0.00105839,-0.00098088,-0.00347165,-0.00004195,-0.00484663,-0.
 00032060,0.00019077,-0.00506013,0.00102744,0.00136129,0.00071993,-0.00
 078077,0.00050978,-0.00044475,-0.00072538,0.00071838,0.00067967,0.0004
 2974,-0.00006806,-0.00047240,-0.00006588,-0.00017493,0.00016627,-0.000
 08841,-0.00034044,-0.00052601,-0.00045679,-0.00022154,-0.00032740,-0.0
 0021016,0.00025929,-0.00005222,-0.00006781,0.00023285,-0.00004034,0.00
 016892,0.00010018,-0.00012151,-0.00008561,0.00013475,0.00000238,-0.000
 08231,0.00005209,-0.00001600,-0.00006673,0.00009105,0.00003319,-0.1243
 7827,-0.06348312,-0.00698923,-0.01671832,-0.02619308,0.01192350,0.5399
 8407,0.00429048,-0.00529294,0.00010160,0.02608462,0.00969528,0.0085932
 4,0.00005346,-0.09712920,0.01135549,-0.02899486,0.00298951,-0.00646906
 ,-0.00068656,-0.00520740,-0.00161660,-0.00078463,-0.00194375,-0.000125
 47,0.00170807,0.00009613,0.00033670,0.00115839,-0.00135948,-0.00019114
 ,-0.00041308,-0.00060697,0.00003646,-0.00123055,0.00006215,-0.00059797
 ,-0.00001097,0.00000441,0.00007870,0.04960969,-0.14916042,0.01136173,0
 .02510919,-0.00527174,-0.00517787,0.00755826,-0.03478261,0.00865415,-0
 .00160140,0.00582216,0.00144772,-0.00294512,-0.00150555,-0.00020689,-0
 .00603339,0.00385645,0.00347719,0.00077520,0.00011103,-0.00119580,0.00
 130133,-0.00159219,-0.00045388,-0.00071335,0.00056511,-0.00002829,0.00
 049585,0.00024783,0.00022340,-0.00025072,-0.00006203,-0.00025236,0.005
 50977,-0.02581999,0.04066961,0.00641177,0.00576510,-0.00999503,-0.0034
 4938,-0.00034815,-0.00807926,0.00001485,-0.00044440,0.00017088,0.00062
 508,0.00070022,0.00067619,-0.00072137,0.00040658,-0.00058101,-0.000147
 20,0.00045184,0.00015305,0.00036723,-0.00016884,-0.00001248,-0.0001360
 9,0.00008789,-0.00000041,-0.00011125,-0.00045408,-0.00063545,-0.000209
 89,-0.00022571,0.00004308,-0.00014706,0.00018953,-0.00008072,-0.000072
 47,0.00030432,-0.00003828,0.00013684,0.00007367,-0.00010880,-0.0000853
 4,0.00013552,-0.00000921,-0.00008666,0.00003700,-0.00001405,-0.0000555
 7,0.00012068,0.00004007,-0.09667956,-0.18721546,0.05514197,-0.00573468
 ,-0.00584913,-0.00217223,0.01942020,0.50523056,0.00204231,0.00212158,0
 .00618936,-0.01078632,0.00757427,-0.00332912,-0.01310159,0.00955967,-0
 .06100599,-0.01128518,-0.00951939,-0.00055995,0.00279682,-0.00288484,0
 .00693365,-0.00108485,0.00039769,-0.00081582,0.00005197,-0.00020352,0.
 00050278,0.00098882,0.00003094,-0.00168238,0.00057471,0.00082799,-0.00
 327712,0.00015731,0.00014337,0.00030824,0.00041941,0.00006729,-0.00092
 210,-0.01147196,0.03592003,-0.05857800,0.00795005,-0.00903535,0.005928
 42,-0.01145503,0.01097920,0.00089418,0.00395680,0.00241745,0.00203424,
 0.00022794,-0.00161311,-0.00226592,0.00174776,0.00494015,0.00089347,-0
 .00069303,-0.00032514,-0.00149293,0.00104214,-0.00038742,-0.00128286,0
 .00024402,-0.00039057,0.00015416,-0.00034002,0.00097010,0.00024487,-0.
 00030439,-0.00013392,-0.00051661,0.00812330,0.03423715,-0.02987889,0.0
 0161812,-0.00286495,0.00049994,0.00077198,-0.00207346,0.00420619,-0.00
 043932,0.00017099,-0.00064651,-0.00043232,0.00003775,-0.00033762,0.000
 63294,-0.00104444,0.00042842,-0.00009145,-0.00060016,-0.00028838,-0.00
 026396,0.00009473,-0.00013116,-0.00017249,0.00019800,0.00010311,0.0000
 8354,0.00055983,0.00098436,0.00041427,0.00017290,0.00010055,0.00005860
 ,-0.00004513,-0.00000795,0.00004546,-0.00038303,0.00013730,-0.00009424
 ,-0.00004353,0.00010690,0.00006471,-0.00010094,0.00000027,0.00002635,-
 0.00002084,-0.00000951,0.00005850,-0.00013630,-0.00004250,0.00787263,0
 .04229733,-0.07165090,0.00011600,-0.00948639,0.01362540,0.01660721,-0.
 12077148,0.17205174,0.00083013,0.00065890,-0.00026678,-0.00111681,0.00
 155798,-0.00077832,0.00361720,0.00129762,0.00334840,-0.00074551,-0.001
 76500,0.00033731,0.00054879,-0.00048862,-0.00005890,0.00012537,-0.0001
 1256,0.00009614,0.00014676,-0.00009284,0.00005241,-0.00020151,-0.00023
 069,0.00066511,-0.00000936,0.00008046,-0.00009671,0.00012280,0.0000713
 2,-0.00001791,0.00002226,-0.00002454,0.00011504,-0.00083801,0.00181558
 ,0.00269788,0.00059904,0.00026733,-0.00032431,-0.00039220,-0.00018557,
 -0.00011434,-0.00029110,0.00068272,-0.00077386,0.00010500,-0.00004811,
 0.00020322,-0.00057646,-0.00022435,-0.00021557,0.00016789,-0.00000152,
 0.00026241,-0.00072555,0.00055679,0.00010300,-0.00011368,0.00007761,0.
 00001583,0.00006325,0.00017337,-0.00000856,0.00000269,0.00007050,0.000
 06255,-0.00073282,0.00511203,-0.00322747,-0.00151800,-0.00168480,0.001
 16910,0.00082297,-0.00004490,0.00178169,-0.00001448,0.00002781,0.00023
 057,-0.00029596,-0.00026489,-0.00015368,0.00054963,-0.00017474,0.00023
 505,-0.00002896,-0.00022980,-0.00004402,-0.00009489,0.00006844,-0.0000
 9817,-0.00005094,0.00004164,-0.00019079,-0.00011235,0.00014757,0.00064
 478,0.00022054,0.00010705,0.00006703,0.00001609,-0.00004299,0.00000049
 ,0.00003222,-0.00023644,0.00011289,-0.00004116,-0.00002360,0.00004468,
 0.00002556,-0.00003490,-0.00000083,-0.00000036,-0.00000191,-0.00000768
 ,0.00002622,-0.00006083,-0.00001908,-0.00570378,-0.01299705,0.00516075
 ,0.00370175,0.00140669,0.00396535,-0.00004458,-0.00269863,-0.02915555,
 0.59691507,0.00097197,0.00049305,-0.00007849,-0.00128260,0.00060585,-0
 .00078733,0.00269132,0.00024612,0.00147788,-0.00051991,-0.00079113,0.0
 0013138,0.00015408,-0.00003569,-0.00003802,-0.00028359,-0.00047876,-0.
 00008481,0.00004957,-0.00000926,0.00000027,-0.00007677,-0.00009130,0.0
 0033848,-0.00004353,0.00001414,-0.00011183,0.00002219,0.00001191,-0.00
 001852,-0.00000685,-0.00001610,0.00009461,-0.00137756,0.00047803,0.000
 58185,0.00059054,0.00084795,0.00014694,-0.00041397,-0.00041618,0.00028
 978,0.00020510,-0.00046181,0.00008376,-0.00008996,0.00005432,-0.000031
 36,-0.00006658,-0.00009367,-0.00010499,0.00029768,0.00016924,-0.000036
 90,0.00006468,0.00006093,-0.00012144,-0.00003558,0.00002539,-0.0000203
 7,-0.00000641,0.00002985,-0.00003342,0.00001671,0.00002302,0.00000074,
 -0.00093606,0.00209245,-0.00000305,-0.00060531,-0.00093607,0.00029342,
 0.00034607,-0.00012954,0.00018091,0.00001873,0.00005429,0.00001896,-0.
 00014342,-0.00010663,-0.00009777,0.00043485,-0.00013557,0.00020982,-0.
 00004825,-0.00012669,-0.00001911,-0.00004381,0.00002114,-0.00003469,-0
 .00014001,0.00006454,-0.00013040,-0.00002653,0.00003754,0.00051462,0.0
 0014108,0.00003026,0.00008608,-0.00001272,-0.00001592,-0.00000654,0.00
 004273,-0.00011002,0.00005704,-0.00001589,-0.00000648,-0.00000024,0.00
 000370,0.00000239,0.00000189,-0.00001897,0.00000559,-0.00000909,0.0000
 1235,-0.00000754,-0.00000614,-0.00557063,-0.00877039,0.00023276,0.0029
 6963,0.00298872,0.00601387,-0.00331119,-0.00054379,-0.01945955,0.04403
 710,0.66150495,-0.00019229,-0.00019199,0.00000211,-0.00001196,0.000096
 79,0.00026326,0.00088985,-0.00038903,-0.00125988,-0.00033161,-0.000133
 83,-0.00016084,0.00023005,0.00000296,0.00020919,-0.00018175,0.00023663
 ,-0.00006071,-0.00000892,0.00002025,-0.00001584,0.00001741,0.00005218,
 -0.00014417,0.00001940,0.00001628,-0.00005642,-0.00000948,-0.00001504,
 -0.00002105,0.00000420,0.00001362,-0.00001662,-0.00020479,-0.00177111,
 -0.00063707,-0.00045950,-0.00009650,-0.00003562,0.00060991,0.00022260,
 -0.00052543,-0.00018744,-0.00018171,0.00009674,-0.00002202,0.00001874,
 0.00004384,-0.00010779,-0.00002120,-0.00003759,-0.00019846,0.00004037,
 0.00014813,-0.00003566,0.00010366,-0.00018572,-0.00000827,0.00002811,0
 .00003762,0.00001019,-0.00001193,0.00001399,0.00001220,0.00003129,0.00
 005219,-0.00143068,-0.00158110,0.00038620,0.00022121,0.00012837,0.0002
 4760,-0.00001667,0.00010128,-0.00089163,0.00011341,0.00000051,-0.00002
 324,0.00001951,0.00005998,0.00002837,-0.00005750,0.00004739,0.00000110
 ,-0.00000421,0.00000278,0.00000337,0.00003053,-0.00002067,0.00001368,-
 0.00002343,0.00003163,0.00003630,0.00003281,-0.00003401,-0.00013543,-0
 .00001386,-0.00001091,0.00001822,-0.00000298,0.00001029,-0.00000684,-0
 .00000998,0.00003890,-0.00001021,0.00000597,0.00000673,-0.00001302,-0.
 00000703,0.00000709,0.00000146,-0.00000244,0.00000205,-0.00000060,-0.0
 0000349,0.00001603,0.00000244,-0.00161007,0.00208518,-0.00675600,-0.00
 149708,-0.00056160,-0.00292882,-0.00611917,-0.00232285,-0.00510827,0.0
 3476574,-0.11648414,0.21651254,0.00022516,0.00003791,0.00027262,-0.000
 68003,-0.00109582,-0.00177824,-0.00252734,-0.00110289,-0.00141747,0.00
 121086,0.00129513,0.00010153,-0.00121315,0.00076543,-0.00026756,-0.000
 42253,-0.00106109,-0.00014145,-0.00004783,0.00010951,-0.00015494,0.000
 01047,-0.00020086,-0.00090061,0.00007236,0.00001992,0.00003770,-0.0000
 6873,-0.00002621,0.00002492,-0.00004496,-0.00001413,0.00003832,0.00038
 632,-0.00131800,-0.00205317,-0.00052951,-0.00009423,0.00016913,0.00018
 772,-0.00045469,-0.00030799,0.00016415,-0.00048555,0.00040057,-0.00004
 709,0.00002136,-0.00006981,-0.00003898,0.00029534,-0.00009974,0.000205
 78,0.00006066,-0.00008059,0.00040935,-0.00007334,-0.00016122,0.0000741
 9,-0.00004178,-0.00001109,-0.00002225,-0.00006072,0.00002137,0.0000237
 1,-0.00003812,-0.00001685,0.00094037,-0.00211670,0.00200349,0.00064425
 ,0.00077566,-0.00064959,-0.00035109,0.00013832,-0.00049293,-0.00002944
 ,-0.00011012,-0.00002184,0.00011100,0.00009794,0.00004628,-0.00027737,
 0.00019736,-0.00010171,0.00005197,0.00009787,0.00005727,0.00004866,-0.
 00002104,0.00003277,0.00009007,-0.00003845,-0.00007492,0.00002171,-0.0
 0008547,-0.00031587,-0.00000237,-0.00003560,-0.00002001,-0.00001581,0.
 00001445,0.00000084,-0.00006914,0.00005695,-0.00002053,0.00004167,0.00
 001848,0.00001491,-0.00001015,0.00001681,-0.00001733,-0.00000496,-0.00
 000389,-0.00000310,-0.00001121,-0.00002343,0.00001639,0.00107124,0.003
 12697,-0.00263268,-0.00069962,0.00025462,-0.00086801,0.00126276,0.0022
 0678,0.01161213,-0.03601497,0.02060000,0.00211311,0.70182532,-0.000986
 94,-0.00039550,0.00021708,0.00077919,0.00242407,-0.00045696,0.00640954
 ,-0.00019274,0.00025458,-0.00179081,-0.00184304,0.00006471,0.00166502,
 -0.00137468,0.00038620,0.00009920,0.00146412,0.00037990,0.00004776,-0.
 00005224,-0.00008623,0.00054461,0.00005587,0.00009282,-0.00004650,-0.0
 0000039,-0.00003381,0.00009638,0.00005034,-0.00007846,0.00004374,-0.00
 000422,-0.00014267,-0.00219000,0.00461619,0.00363232,0.00192806,0.0000
 1315,-0.00022876,-0.00056019,-0.00134624,0.00037566,-0.00019784,0.0008
 7011,-0.00045447,0.00006588,-0.00015790,-0.00000946,-0.00072767,0.0001
 2821,-0.00025787,0.00041592,0.00021457,0.00023078,-0.00007169,-0.00020
 025,0.00012980,-0.00010987,0.00004686,-0.00005787,0.00000130,0.0000718
 8,-0.00002978,0.00001731,0.00005946,0.00003445,-0.00374249,0.00574051,
 -0.00574117,-0.00081474,-0.00179556,0.00167746,0.00084529,-0.00041036,
 0.00092100,0.00024379,0.00042762,-0.00016821,-0.00017608,-0.00022844,-
 0.00003226,0.00029364,-0.00062453,0.00015218,-0.00006113,-0.00010725,-
 0.00008333,-0.00008261,0.00003618,-0.00006013,-0.00016822,0.00003165,0
 .00029021,-0.00009950,0.00023364,0.00078830,0.00002123,-0.00004394,-0.
 00003376,0.00001057,-0.00001530,-0.00003473,0.00008251,-0.00016641,0.0
 0007370,-0.00002658,-0.00002748,0.00000110,0.00000922,-0.00000959,0.00
 001180,-0.00001503,0.00000507,-0.00001559,0.00002495,-0.00000522,-0.00
 001020,-0.00341743,-0.00725345,0.01118477,0.00005810,-0.00098271,0.000
 15072,0.00259354,-0.01094615,-0.03282684,0.02242374,0.01957803,-0.0083
 8038,0.05240617,0.71048267,0.00073920,0.00018454,-0.00037757,-0.001669
 40,-0.00101795,-0.00373672,-0.00088624,-0.00123266,-0.00150388,0.00066
 615,0.00057811,0.00039873,-0.00074064,0.00017150,-0.00025865,0.0000838
 6,-0.00061098,0.00006820,0.00003683,0.00002082,-0.00003056,-0.00103355
 ,-0.00062492,-0.00207580,0.00006990,0.00000085,-0.00005587,-0.00001189
 ,-0.00000787,0.00001837,-0.00006157,-0.00002761,0.00009857,0.00028497,
 -0.00107859,-0.00150499,-0.00056471,0.00006263,-0.00001183,0.00088771,
 -0.00068610,-0.00057174,0.00001625,-0.00054526,0.00040654,-0.00009148,
 0.00002246,0.00000730,-0.00059091,0.00036863,0.00003885,-0.00020626,-0
 .00002740,0.00014668,0.00062809,0.00001129,-0.00036090,0.00005097,-0.0
 0000980,0.00002719,-0.00000474,-0.00004846,0.00002331,0.00000486,0.000
 00270,0.00002563,0.00053259,-0.00125630,0.00196620,0.00013539,0.000376
 17,-0.00035295,-0.00009371,0.00019519,-0.00016382,0.00001493,-0.000044
 42,-0.00001523,-0.00000474,0.00002483,0.00002017,-0.00005271,0.0000385
 6,-0.00000560,0.00001565,0.00003889,0.00001368,0.00001373,-0.00000502,
 0.00002058,0.00000748,-0.00003236,0.00004107,-0.00005095,-0.00005839,-
 0.00005240,-0.00003510,-0.00004666,0.00001235,-0.00001063,0.00000412,0
 .00000090,-0.00001069,0.00000640,-0.00000188,0.00001332,0.00000752,-0.
 00000209,-0.00000380,0.00001177,-0.00000758,-0.00000639,-0.00000080,-0
 .00000090,-0.00000362,-0.00000676,0.00000697,0.00201932,-0.00123569,-0
 .00406333,0.00006204,-0.00003137,-0.00048025,0.00320381,-0.00470974,-0
 .00294786,-0.01106642,-0.00283119,0.00546350,-0.04208670,-0.09868548,0
 .16267016,-0.00007695,0.00013540,-0.00018831,0.00053332,0.00019884,-0.
 00003100,-0.00051279,-0.00000581,-0.00035090,0.00023053,-0.00015103,0.
 00004577,0.00007958,-0.00035948,-0.00004990,0.00042449,0.00014392,0.00
 013600,0.00009266,-0.00006515,0.00003698,-0.00010454,-0.00003022,0.000
 32094,-0.00004152,-0.00003570,-0.00001849,0.00004888,0.00004691,0.0000
 1589,0.00001757,-0.00000938,0.00004777,0.00029835,-0.00052818,0.000945
 22,0.00000637,0.00035639,-0.00020911,-0.00045135,-0.00004738,0.0001035
 1,0.00008815,-0.00016147,-0.00005936,0.00012982,-0.00003499,-0.0000323
 5,0.00001289,-0.00001963,0.00003851,0.00014299,0.00008030,0.00002016,0
 .00004431,0.00001032,-0.00002881,-0.00007611,0.00005755,0.00000797,-0.
 00002240,0.00003329,-0.00003966,-0.00000373,0.00003706,-0.00001121,-0.
 00007530,0.00281364,-0.00391358,-0.00093546,-0.00098395,0.00074236,0.0
 0007153,-0.00046470,0.00070945,-0.00007310,0.00000979,0.00023588,-0.00
 017415,-0.00011299,-0.00008600,0.00022672,-0.00017289,0.00016312,-0.00
 000308,-0.00018150,-0.00004671,-0.00005402,0.00002800,-0.00005887,-0.0
 0006175,0.00005604,-0.00006780,0.00020199,0.00015960,0.00040397,0.0001
 6271,0.00009283,0.00006751,0.00001248,-0.00001858,-0.00000760,0.000020
 01,-0.00011008,0.00001861,-0.00002809,-0.00000818,0.00003422,0.0000215
 6,-0.00002924,0.00000020,-0.00000131,-0.00000569,-0.00000384,0.0000186
 2,-0.00004634,-0.00001505,0.00216928,-0.00038510,0.00336292,-0.0011763
 1,-0.00082396,-0.00349989,0.00130012,0.00018402,0.00014938,-0.14822280
 ,-0.10083721,0.01704241,-0.00041443,-0.00136463,0.00027311,0.57995704,
 -0.00034500,-0.00039846,0.00020207,0.00037059,-0.00153234,0.00039101,-
 0.00346453,-0.00043959,-0.00177156,0.00101402,0.00150042,-0.00010831,-
 0.00078187,0.00076426,-0.00008944,-0.00018751,-0.00028725,-0.00013912,
 -0.00014080,0.00008622,-0.00001549,0.00010402,0.00023782,-0.00043147,0
 .00003803,-0.00001165,0.00009938,-0.00008347,-0.00005735,0.00003400,-0
 .00001729,0.00001924,-0.00007718,0.00119805,-0.00087275,-0.00202786,-0
 .00057061,-0.00049780,0.00003832,0.00032683,0.00019771,0.00001512,0.00
 009663,0.00007267,0.00024010,-0.00003196,-0.00000595,-0.00002256,0.000
 19936,0.00009648,-0.00008371,-0.00011555,-0.00003719,-0.00009998,0.000
 05319,-0.00000423,0.00004092,0.00008704,-0.00004673,0.00002246,-0.0000
 0119,-0.00003807,0.00003639,0.00000461,-0.00004050,-0.00001245,0.00163
 713,-0.00301338,0.00296114,0.00042873,0.00122772,-0.00088048,-0.000108
 59,0.00067329,-0.00002253,-0.00012698,-0.00010488,-0.00017124,0.000369
 45,0.00012498,0.00015185,-0.00061371,0.00038100,-0.00033826,0.00010317
 ,0.00037314,0.00008738,0.00007175,-0.00002812,0.00009789,0.00021264,-0
 .00032771,0.00013561,0.00009602,-0.00039632,-0.00102078,-0.00045052,-0
 .00003848,-0.00017631,0.00002065,0.00002960,0.00002822,-0.00005525,0.0
 0040555,-0.00026366,0.00002412,0.00000907,-0.00002790,-0.00001260,0.00
 000763,-0.00000117,0.00003589,-0.00000392,0.00002353,-0.00003646,0.000
 04473,0.00001826,0.00065353,0.00327568,-0.00284303,-0.00000493,-0.0015
 4866,-0.00254235,-0.00056571,0.00215319,0.01460634,-0.06611544,-0.3457
 5405,0.06629752,0.00792679,-0.01413311,0.00412116,0.08190430,0.6614661
 3,0.00001157,0.00002755,-0.00011840,-0.00011302,0.00014994,0.00013074,
 -0.00020597,0.00035605,0.00153810,-0.00004607,-0.00024681,0.00024798,0
 .00009183,-0.00002316,-0.00016160,0.00004198,0.00003800,0.00004378,0.0
 0002295,-0.00001433,-0.00000481,-0.00000660,-0.00004162,0.00003308,-0.
 00003384,0.00000031,0.00000201,0.00003077,0.00001209,-0.00002689,0.000
 00145,-0.00000407,0.00002777,-0.00014748,0.00047718,0.00091002,0.00027
 251,0.00043167,0.00006842,-0.00009464,0.00007254,0.00017138,0.00005451
 ,-0.00016823,0.00000604,-0.00008966,0.00003437,0.00003570,0.00002986,-
 0.00015925,0.00007027,0.00001643,-0.00001381,0.00000364,-0.00007669,0.
 00001394,-0.00009378,-0.00002306,0.00002109,0.00000621,0.00000169,0.00
 000068,-0.00000806,-0.00000727,-0.00000397,-0.00000514,-0.00059734,0.0
 0070564,0.00168797,-0.00055273,-0.00046685,0.00000469,0.00013451,-0.00
 013000,-0.00031499,0.00000978,-0.00003432,-0.00003579,0.00000342,-0.00
 005520,0.00000808,0.00021999,0.00002763,0.00009423,-0.00001553,0.00004
 812,0.00004822,0.00000656,0.00001281,-0.00003725,-0.00001002,0.0000273
 4,0.00005943,0.00005279,-0.00008616,0.00043960,-0.00005580,-0.00000841
 ,-0.00002013,-0.00001096,0.00000259,-0.00000354,0.00003148,-0.00001257
 ,-0.00000951,-0.00000089,-0.00000039,0.00000427,0.00000185,0.00000245,
 0.00000410,-0.00000927,0.00000146,-0.00000561,0.00000604,0.00000154,-0
 .00000151,-0.00757730,-0.00985182,-0.00636362,0.00276345,0.00212277,0.
 00360819,0.00282203,0.00328317,-0.00916278,0.00788569,0.06106201,-0.07
 469142,-0.00185784,0.00610393,-0.00236664,0.00997934,-0.11848630,0.181
 36445,-0.00129540,-0.00122000,-0.00001998,0.00048538,0.00071459,0.0000
 8826,0.00105206,0.00071134,0.00067831,-0.00109214,-0.00005066,-0.00020
 143,0.00101922,-0.00018299,0.00026818,-0.00027258,0.00138886,0.0002130
 7,-0.00016743,0.00006164,-0.00009725,-0.00056571,-0.00144881,-0.001776
 21,-0.00001041,0.00000475,0.00015170,-0.00003596,-0.00006914,-0.000074
 16,-0.00002861,0.00001730,-0.00015502,0.00042058,-0.00106150,-0.003254
 61,-0.00051146,-0.00059258,0.00028265,0.00045044,0.00047648,-0.0000209
 7,0.00013287,-0.00020728,0.00051192,-0.00009029,0.00000558,-0.00009925
 ,0.00054068,0.00007309,0.00001368,-0.00029360,-0.00007061,-0.00016891,
 0.00025554,-0.00035376,0.00004323,0.00013868,-0.00009022,-0.00001876,-
 0.00002349,-0.00010981,0.00004112,-0.00000231,-0.00007759,-0.00004117,
 0.00145775,-0.00465169,0.00387695,0.00078849,0.00158063,-0.00110700,-0
 .00029144,0.00087267,-0.00080296,-0.00008150,-0.00019487,-0.00021401,0
 .00030123,0.00024126,0.00013076,-0.00005453,0.00014177,-0.00000864,-0.
 00002157,0.00023772,-0.00002579,0.00006766,-0.00005679,0.00015040,-0.0
 0011084,-0.00010827,0.00050506,-0.00010593,-0.00034806,-0.00106485,-0.
 00053584,-0.00004089,-0.00008453,0.00001569,0.00003421,0.00002984,0.00
 005459,0.00035536,-0.00020553,-0.00001094,0.00000377,-0.00010694,-0.00
 002338,0.00001481,0.00003097,0.00003203,0.00001020,0.00003093,-0.00003
 713,0.00015201,0.00000049,0.00062531,0.00477623,-0.00214278,-0.0004313
 3,0.00067506,-0.00112873,-0.00106015,-0.00162024,0.00945529,-0.0085148
 3,-0.00476029,0.00286044,-0.15422311,-0.07147395,0.02195795,-0.0220654
 4,0.01077971,-0.00271385,0.54922425,-0.00030344,-0.00006241,0.00007297
 ,0.00028151,-0.00031454,-0.00001955,-0.00232191,0.00020762,-0.00062193
 ,0.00031790,0.00018178,-0.00006552,-0.00011203,0.00029681,-0.00001913,
 0.00007734,0.00001004,-0.00000162,0.00008305,0.00000544,0.00007776,-0.
 00103264,-0.00006546,-0.00124486,-0.00002155,0.00001249,0.00007689,-0.
 00000327,-0.00001708,0.00001226,0.00002015,0.00001119,-0.00002752,0.00
 145828,-0.00256661,-0.00139454,-0.00128059,0.00010352,0.00013212,0.000
 24857,0.00051389,-0.00044219,0.00020614,-0.00063389,0.00034475,0.00001
 399,0.00000932,-0.00005534,0.00021548,0.00002311,-0.00001302,-0.000002
 78,-0.00001336,-0.00003829,0.00013765,0.00019580,-0.00016903,0.0000463
 0,-0.00000926,0.00003732,-0.00000868,-0.00001842,0.00000786,0.00000013
 ,-0.00001826,-0.00002398,0.00039986,-0.00003115,-0.00023595,0.00009505
 ,0.00006652,0.00001850,0.00005368,0.00001177,0.00025116,0.00006177,-0.
 00021771,0.00018279,-0.00004676,0.00015804,-0.00003750,-0.00027204,0.0
 0059859,-0.00007679,0.00009285,-0.00013771,0.00002428,0.00001467,0.000
 01249,0.00000398,0.00018535,-0.00009739,-0.00070821,-0.00009122,-0.000
 21254,-0.00075884,0.00037546,0.00004481,0.00021144,0.00000678,-0.00001
 094,0.00002614,-0.00012257,0.00005730,-0.00001036,0.00002064,0.0000184
 3,0.00001499,0.00000665,0.00000326,-0.00003104,0.00001594,-0.00001059,
 0.00002934,-0.00003163,-0.00005604,-0.00000053,-0.00003775,0.00182588,
 -0.00045165,0.00024454,0.00006748,-0.00033318,0.00061147,0.00259162,0.
 01155691,-0.01294647,-0.00578680,0.00308229,-0.11232074,-0.39149403,0.
 06942035,0.02221918,0.01956440,-0.00277936,0.03335935,0.74794070,-0.00
 036677,-0.00057770,0.00038767,0.00009796,0.00110039,-0.00169585,0.0007
 6935,0.00001434,-0.00009884,-0.00027603,-0.00025360,0.00002752,0.00029
 297,-0.00028295,0.00005307,-0.00011571,0.00035105,0.00027879,-0.000002
 30,0.00002872,-0.00012018,-0.00095503,-0.00181716,-0.00186216,-0.00007
 515,-0.00003085,0.00007461,0.00001439,-0.00000501,-0.00004428,0.000004
 20,-0.00002947,-0.00015117,-0.00012766,0.00087604,0.00094018,0.0002751
 8,-0.00010098,-0.00003429,-0.00002443,-0.00017655,0.00007413,0.0000087
 5,0.00011213,0.00004851,-0.00002702,-0.00007958,-0.00006136,-0.0000817
 5,0.00001008,-0.00005052,0.00001278,0.00001555,0.00001214,0.00003164,-
 0.00004665,0.00002828,-0.00000438,-0.00000089,-0.00001101,-0.00000159,
 0.00000101,-0.00000371,-0.00000711,-0.00000416,-0.00001473,-0.00148416
 ,0.00180245,-0.00136308,-0.00007929,-0.00051155,0.00052649,0.00041294,
 -0.00002494,0.00036483,0.00001645,-0.00010316,-0.00012432,0.00000730,-
 0.00003512,0.00001781,-0.00010398,-0.00002570,0.00038713,0.00006689,0.
 00008648,-0.00000398,-0.00001409,-0.00000124,0.00003738,-0.00001052,0.
 00000966,0.00014891,-0.00006457,0.00004343,0.00009782,-0.00000483,-0.0
 0007454,-0.00011369,0.00000830,-0.00000672,-0.00000358,-0.00002478,-0.
 00008018,0.00004289,0.00002975,-0.00003167,0.00001637,0.00000395,0.000
 00054,-0.00000724,0.00000075,-0.00000903,-0.00000376,0.00000564,-0.000
 04786,0.00001742,-0.00172100,-0.00395366,0.00268866,0.00039459,-0.0000
 4959,0.00019259,0.00156302,-0.00031069,-0.00608259,0.00399301,0.001542
 26,-0.00143358,0.02786436,0.06878242,-0.06736857,-0.00509761,-0.001514
 73,0.00915432,-0.02429262,-0.12280489,0.18021610,0.00028139,0.00010925
 ,-0.00020238,0.00012252,0.00002558,-0.00098156,0.00013386,-0.00011246,
 -0.00040148,0.00015394,0.00012880,0.00009364,-0.00013110,-0.00012597,-
 0.00002947,0.00012321,-0.00012497,0.00011380,0.00000970,-0.00000021,0.
 00000561,-0.00020236,-0.00030686,-0.00001541,-0.00002053,-0.00002957,-
 0.00001479,0.00000666,0.00000631,-0.00000189,-0.00001290,-0.00001125,0
 .00000019,0.00013292,-0.00003074,0.00023529,-0.00000679,0.00007636,-0.
 00000915,-0.00008477,0.00003865,0.00003768,0.00002620,-0.00001537,-0.0
 0003564,0.00000859,-0.00000061,-0.00000754,-0.00000308,-0.00001594,0.0
 0000785,-0.00000574,0.00002437,-0.00000220,-0.00001582,0.00003068,-0.0
 0000553,-0.00000842,0.00000208,-0.00000192,-0.00000198,0.00001260,-0.0
 0000708,0.00000115,0.00000461,-0.00000083,-0.00024255,0.00026611,-0.00
 037919,-0.00002813,-0.00010200,0.00013235,0.00012123,0.00002361,0.0001
 0833,0.00001122,-0.00000065,0.00000806,-0.00000611,-0.00002226,-0.0000
 1622,-0.00000854,0.00000330,-0.00000883,0.00001745,-0.00000808,-0.0000
 0275,-0.00001267,0.00000358,0.00000796,0.00001258,-0.00001116,-0.00001
 118,0.00000330,0.00000483,-0.00000743,0.00000562,0.00000639,-0.0000019
 4,0.00000483,-0.00000615,0.00000596,-0.00000435,0.00000023,-0.00000309
 ,-0.00000245,-0.00000128,0.00000397,0.00000268,-0.00000287,-0.00000138
 ,0.00000422,-0.00000202,0.00000263,-0.00000040,-0.00000572,-0.00000085
 ,0.00012379,-0.00033359,0.00032192,0.00006564,-0.00006165,-0.00009229,
 -0.00056233,0.00000749,-0.00092586,-0.00030359,0.00399791,-0.00042568,
 -0.32124703,-0.05537326,0.02405495,0.00047461,0.00007667,-0.00009036,-
 0.00788674,-0.00047860,0.00088151,0.34210359,0.00003318,0.00004241,-0.
 00009522,-0.00013333,0.00016074,-0.00056252,-0.00005831,-0.00024092,-0
 .00031720,0.00002006,-0.00005754,0.00005057,-0.00007245,-0.00001888,-0
 .00001111,0.00000671,-0.00005546,-0.00000286,0.00004164,-0.00002038,0.
 00004196,-0.00014168,-0.00005429,0.00020119,0.00000525,-0.00000039,-0.
 00000641,0.00000410,-0.00000111,-0.00000007,0.00000037,-0.00000141,0.0
 0001224,-0.00004574,0.00004756,0.00015954,0.00001327,0.00000535,-0.000
 01200,0.00005470,0.00001355,-0.00002768,-0.00002799,0.00000772,-0.0000
 1624,0.00000011,0.00000108,0.00001134,-0.00002631,-0.00001277,0.000011
 35,-0.00000301,-0.00002167,0.00001680,-0.00002014,0.00001090,-0.000003
 27,-0.00000609,0.00000545,0.00000419,0.00000480,0.00000169,-0.00000004
 ,-0.00000498,0.00000434,0.00000369,-0.00002709,0.00008279,-0.00008720,
 -0.00001294,-0.00003046,0.00002630,-0.00002159,-0.00004380,0.00000238,
 0.00000427,-0.00001574,0.00000454,-0.00000316,0.00000035,0.00000064,-0
 .00001979,0.00002062,-0.00001721,0.00001185,0.00000381,0.00000153,-0.0
 0000084,0.00000157,-0.00000670,0.00001617,-0.00001301,-0.00002058,0.00
 000987,-0.00000396,-0.00001532,0.00000282,0.00000880,-0.00000827,0.000
 00163,-0.00000034,0.00000440,-0.00000975,0.00000064,-0.00000223,0.0000
 0067,0.00000077,0.00000507,0.00000382,-0.00000175,-0.00000396,0.000003
 29,-0.00000243,0.00000437,-0.00000288,-0.00001131,-0.00000067,0.000033
 39,0.00000505,-0.00006309,-0.00004174,-0.00003229,0.00005407,0.0000872
 9,0.00023442,0.00009034,0.00178177,-0.00430446,0.00011790,-0.05513558,
 -0.07000556,0.00677768,-0.00052492,0.00011728,-0.00015369,-0.03063728,
 -0.00230409,0.00298298,0.05910956,0.07247849,-0.00038009,0.00003797,-0
 .00003268,-0.00025337,-0.00010326,-0.00134164,0.00051619,-0.00027405,-
 0.00000671,-0.00019568,-0.00006180,-0.00008433,0.00014980,0.00005660,0
 .00003028,-0.00010062,0.00006234,-0.00000836,0.00000426,-0.00000862,-0
 .00001262,0.00016194,0.00018156,-0.00082458,0.00001919,0.00004995,0.00
 002674,0.00000418,0.00001855,0.00000297,0.00003694,0.00002708,0.000006
 52,0.00002875,-0.00013814,-0.00007607,-0.00006246,0.00001537,-0.000014
 13,0.00002274,0.00002121,-0.00005623,0.00000574,-0.00004056,0.00002206
 ,0.00000289,0.00000475,0.00000089,-0.00000754,-0.00000141,-0.00000892,
 0.00000812,0.00000635,0.00004937,0.00001584,0.00000093,-0.00002414,0.0
 0000393,0.00000355,0.00000740,0.00000026,0.00000386,0.00000259,-0.0000
 0011,0.00000245,0.00000267,0.00030301,-0.00016021,0.00031627,-0.000031
 12,0.00005037,-0.00007961,-0.00015262,-0.00004511,-0.00004254,-0.00001
 514,-0.00002565,0.00000434,-0.00000987,0.00000466,0.00001471,0.0000075
 2,0.00001981,-0.00001295,-0.00002392,-0.00000097,0.00000906,0.00000744
 ,-0.00000108,-0.00002866,0.00000287,-0.00001054,-0.00001416,0.00001423
 ,0.00000948,0.00004075,0.00000167,0.00002136,0.00000185,-0.00000056,0.
 00000588,-0.00000621,-0.00000087,-0.00000473,0.00000077,-0.00000213,-0
 .00000162,0.00000272,0.00000042,-0.00000461,0.00000143,0.00000005,0.00
 000212,-0.00000187,0.00000155,-0.00000433,-0.00000140,0.00007062,0.000
 27217,-0.00061316,-0.00014371,-0.00000197,0.00001617,0.00001765,0.0001
 5462,0.00077244,-0.00059328,0.00014525,0.00289190,0.01964695,0.0066493
 8,-0.03930183,-0.00034745,-0.00026617,-0.00100201,0.00721172,0.0029340
 9,0.00672322,-0.02368687,-0.00992812,0.02944196,0.00184024,0.00136231,
 0.00031055,-0.00176180,-0.00206541,-0.00083171,-0.00239352,-0.00105411
 ,-0.00175662,0.00152573,0.00096268,0.00007660,-0.00169210,0.00094867,-
 0.00029179,-0.00009666,-0.00208277,-0.00040314,0.00003692,-0.00000759,
 0.00006135,0.00006896,0.00081707,0.00015400,0.00004568,0.00004950,-0.0
 0013728,-0.00003325,0.00003793,0.00009808,0.00004601,0.00001568,0.0001
 2311,-0.00001344,0.00064955,0.00246296,0.00003542,0.00041267,-0.000272
 58,-0.00007343,-0.00011354,-0.00001431,-0.00014972,0.00031855,-0.00060
 330,0.00006053,0.00006425,0.00018373,-0.00053620,-0.00013641,0.0000915
 4,0.00011520,0.00000793,0.00013591,-0.00031747,0.00054469,0.00002032,-
 0.00009523,0.00005997,0.00004159,0.00004197,0.00008796,-0.00001960,0.0
 0000572,0.00005680,0.00005889,0.00069323,0.00224924,-0.00124769,-0.000
 87089,-0.00096208,0.00016913,-0.00005993,-0.00052041,0.00040403,-0.000
 16790,0.00034952,0.00029495,-0.00039934,-0.00022329,-0.00015930,0.0008
 9367,-0.00027433,-0.00028388,-0.00016819,-0.00024110,-0.00006836,-0.00
 006503,0.00003117,-0.00010569,-0.00031424,0.00036429,-0.00018528,-0.00
 021060,-0.00003168,0.00164830,0.00031776,0.00001805,0.00003186,-0.0000
 3020,-0.00003030,-0.00003238,0.00009773,-0.00049139,0.00038683,-0.0000
 3355,-0.00003126,0.00000053,0.00000562,-0.00000260,0.00001868,-0.00004
 437,0.00001540,-0.00003353,0.00004286,-0.00000093,-0.00001285,-0.00185
 615,-0.00329679,-0.00091295,0.00140756,0.00031890,0.00325879,-0.002839
 67,0.00382322,-0.00336582,0.03099077,0.01057107,-0.00003330,0.00198468
 ,-0.04077631,0.00453808,-0.17011122,0.03724044,-0.01200770,-0.20198365
 ,0.01680951,0.00279315,0.00240190,0.00293168,-0.00030076,0.56482799,0.
 00000742,0.00058022,-0.00008736,0.00028840,0.00104427,0.00030100,0.002
 19794,0.00043844,0.00096833,-0.00060122,-0.00141552,0.00012490,0.00076
 535,-0.00093714,0.00007286,0.00058831,0.00043262,0.00021150,0.00024645
 ,-0.00015578,0.00001285,-0.00012972,0.00014610,0.00005093,-0.00006201,
 -0.00001469,-0.00013292,0.00013370,0.00010506,-0.00000764,0.00008638,0
 .00000629,0.00006643,-0.00076489,0.00047562,0.00242213,0.00071270,0.00
 085471,-0.00021150,-0.00040545,-0.00021478,0.00022657,-0.00001935,-0.0
 0001346,-0.00031508,0.00008798,-0.00000501,-0.00012414,-0.00036409,-0.
 00011602,0.00011505,0.00004889,-0.00003113,0.00013523,-0.00015579,0.00
 014150,-0.00008900,-0.00016633,0.00008817,-0.00001054,0.00001356,0.000
 10614,-0.00006351,-0.00003305,0.00009647,0.00001485,-0.00158550,0.0094
 4674,-0.00895617,-0.00090448,-0.00314145,0.00197615,0.00039931,-0.0018
 8720,0.00164505,-0.00013305,0.00089597,0.00070530,-0.00125892,-0.00058
 784,-0.00048431,0.00285671,-0.00120948,-0.00001948,-0.00042487,-0.0010
 6664,-0.00033287,-0.00028035,0.00010307,-0.00027202,-0.00096342,0.0005
 8538,-0.00064214,-0.00100800,0.00112328,0.00448272,0.00128068,0.000062
 18,0.00061026,-0.00006031,-0.00009450,-0.00011881,0.00023009,-0.000999
 77,0.00056967,-0.00010880,-0.00006929,0.00002417,0.00001715,0.00000418
 ,0.00001923,-0.00013502,0.00003654,-0.00009166,0.00011543,-0.00005304,
 -0.00003760,0.00131805,-0.00457442,0.00779025,-0.00113249,-0.00211545,
 -0.00439078,0.00138995,-0.00291593,-0.01196855,0.00060604,-0.04299034,
 0.00906149,-0.03439528,-0.01398441,0.00438317,0.04431641,-0.11355943,0
 .01500414,0.01086405,-0.09114309,0.00366837,-0.00042968,-0.00449470,0.
 00279671,0.09210153,0.75929502,0.00010214,-0.00015053,0.00020169,0.000
 02945,-0.00046586,-0.00050220,-0.00140668,0.00008924,-0.00056415,0.000
 46745,0.00056386,-0.00006660,-0.00037972,0.00047405,-0.00006808,-0.000
 26443,-0.00030861,-0.00005621,-0.00007394,0.00004873,-0.00000698,-0.00
 005911,-0.00004455,0.00010244,0.00000053,0.00000673,0.00006076,-0.0000
 3725,-0.00003255,0.00001727,-0.00001098,-0.00000006,-0.00003617,0.0005
 2473,-0.00009051,-0.00105318,-0.00029042,-0.00029065,0.00006706,0.0001
 6838,0.00020993,-0.00001929,0.00003433,-0.00003640,0.00015773,0.000004
 26,-0.00003029,0.00001568,0.00019773,-0.00000058,-0.00012242,-0.000023
 60,0.00000649,-0.00002855,0.00003513,-0.00010904,-0.00003249,0.0000514
 5,-0.00002571,0.00000670,-0.00001003,-0.00001790,0.00001668,0.00000419
 ,-0.00001869,-0.00000656,0.00025968,-0.00234925,0.00038610,0.00028076,
 0.00087113,-0.00013298,0.00018654,0.00069664,0.00002468,-0.00000742,-0
 .00033759,-0.00023263,0.00020642,0.00012260,0.00015640,-0.00065733,0.0
 0054621,-0.00157437,0.00013816,0.00020689,0.00005018,0.00005727,-0.000
 03026,0.00010723,0.00034857,-0.00006224,0.00030873,0.00010465,0.000613
 88,-0.00317004,-0.00033205,0.00001362,-0.00013648,0.00004525,0.0000117
 0,0.00003189,-0.00001227,0.00020415,-0.00011094,0.00002113,0.00002204,
 0.00001338,0.00000577,-0.00002344,-0.00000136,0.00005475,-0.00001924,0
 .00002537,-0.00002170,0.00000081,-0.00000245,-0.00033009,0.00144359,-0
 .00087969,0.00108810,-0.00220377,-0.00048620,-0.00049277,0.00015873,0.
 00436166,0.00147298,0.01199949,-0.00345215,0.00668082,0.00568200,0.000
 68289,-0.01303176,0.00888157,-0.07302599,0.00221435,0.00134695,-0.0770
 5733,0.00079519,0.00277722,0.01026965,-0.03666946,-0.16175478,0.241746
 66,-0.00094963,-0.00088319,0.00049588,0.00145591,-0.00040755,0.0005282
 4,-0.00199499,-0.00277866,-0.00849707,-0.00013630,0.00098288,-0.000571
 38,0.00004505,0.00003325,0.00058735,-0.00014014,0.00062643,-0.00003088
 ,-0.00004695,0.00003879,0.00001428,-0.00001808,0.00018242,-0.00080459,
 -0.00003281,-0.00007045,-0.00014793,-0.00008037,-0.00005492,0.00000131
 ,0.00004690,0.00003604,-0.00020870,0.00034473,0.00176432,0.00380283,0.
 00022607,-0.00028781,-0.00011764,0.00028200,0.00140744,0.00094327,-0.0
 0021786,0.00046143,-0.00035532,0.00005971,0.00002005,0.00010457,0.0006
 1627,-0.00069013,-0.00004150,-0.00027495,0.00001066,-0.00007140,-0.000
 59231,-0.00022920,0.00032519,-0.00002362,0.00000495,-0.00000654,0.0000
 1608,-0.00001546,-0.00001883,-0.00000803,0.00001135,0.00002325,-0.0026
 1946,-0.00045753,-0.00120747,0.00000576,-0.00017541,0.00053191,0.00018
 735,-0.00018089,-0.00076275,0.00015114,0.00013671,-0.00019383,0.000039
 73,-0.00001089,0.00004639,-0.00004372,-0.00007776,-0.00001417,0.000021
 73,0.00008982,-0.00001589,0.00000701,-0.00001442,0.00005877,-0.0000731
 1,0.00002760,0.00025464,0.00004309,-0.00000326,-0.00016204,-0.00013116
 ,-0.00007699,-0.00007301,0.00000835,0.00000209,-0.00000256,0.00001591,
 0.00005588,-0.00002664,0.00000451,-0.00000029,-0.00002540,-0.00000634,
 0.00001114,0.00000645,0.00000288,-0.00000059,0.00000288,-0.00000433,0.
 00003308,0.00000464,0.00167335,0.00565241,0.00348430,-0.00257678,-0.00
 198261,0.00000851,-0.01226693,-0.00004918,0.01023136,-0.24997696,-0.00
 837254,-0.02834445,-0.19371924,0.07147079,0.00950231,-0.02035468,-0.04
 315363,0.01355919,0.02497148,0.02083940,-0.00866758,-0.01636647,0.0253
 9407,-0.00156186,-0.00851998,0.00527508,-0.00130773,0.58737110,-0.0002
 8135,-0.00049404,-0.00022137,0.00134083,-0.00174998,0.00029476,-0.0095
 9906,-0.00161401,-0.00575265,0.00269276,0.00242145,-0.00008482,-0.0017
 3532,0.00078837,-0.00037931,0.00052006,-0.00067424,0.00002748,0.000032
 76,0.00001649,-0.00001214,-0.00007815,-0.00027047,0.00033933,0.0000804
 7,-0.00007981,0.00007773,-0.00003846,-0.00001934,0.00007259,-0.0000549
 7,-0.00003164,0.00006555,0.00621483,-0.01164913,-0.00938497,-0.0040231
 3,0.00009116,0.00017249,0.00197326,-0.00105429,-0.00215045,0.00032153,
 -0.00217421,0.00139403,-0.00006398,0.00004741,0.00003397,-0.00039131,0
 .00060553,-0.00008380,-0.00030629,-0.00056338,-0.00003550,0.00107954,0
 .00045495,-0.00100868,0.00015490,0.00000815,0.00018890,-0.00003893,-0.
 00005561,0.00003625,-0.00000608,0.00002130,0.00003392,0.00045192,-0.00
 262506,0.00367583,-0.00082966,0.00033030,-0.00000190,0.00000060,0.0003
 7602,-0.00006182,-0.00003116,-0.00026523,0.00008864,0.00003543,0.00001
 932,-0.00001874,-0.00005423,0.00032120,-0.00003075,0.00005501,0.000014
 76,0.00003368,0.00002207,0.00002132,0.00002116,0.00007775,-0.00006713,
 -0.00016212,-0.00002735,-0.00013315,-0.00041154,0.00000476,0.00002750,
 0.00003238,0.00000782,-0.00000792,0.00002208,-0.00003727,0.00007490,-0
 .00004400,0.00000585,0.00000688,-0.00000161,-0.00000083,-0.00000039,-0
 .00000446,0.00001218,-0.00000308,0.00001050,-0.00001140,0.00000157,0.0
 0000172,0.00337351,0.00477244,-0.00411011,-0.00076349,-0.00068848,0.00
 059469,0.00150832,-0.00161461,0.03628224,-0.03654314,-0.10418754,0.013
 25078,0.10488203,-0.19486990,0.01483295,-0.03366750,-0.01106813,-0.000
 84372,0.00746590,-0.05265765,0.01131970,-0.00650210,0.00830915,-0.0002
 7898,0.00534167,0.00751997,-0.00459096,0.01394986,0.64398391,-0.001127
 22,-0.00079589,0.00005950,0.00236542,-0.00351537,0.00157194,-0.0151444
 8,-0.00330056,-0.00954949,0.00406249,0.00428810,0.00004768,-0.00250369
 ,0.00130025,-0.00054487,0.00087992,-0.00075244,0.00002971,-0.00005434,
 0.00006652,-0.00007017,0.00003435,0.00005631,-0.00048664,0.00003371,-0
 .00004559,0.00027598,-0.00009177,-0.00003279,0.00013918,-0.00003705,0.
 00000825,-0.00003426,0.00680848,-0.01431232,-0.00867460,-0.00426955,-0
 .00006396,0.00030864,-0.00049070,0.00243462,-0.00129837,0.00063545,-0.
 00107642,0.00068966,-0.00000577,0.00020497,-0.00004692,0.00211853,-0.0
 0036345,-0.00000686,0.00039895,-0.00017949,-0.00057704,-0.00044698,0.0
 0040578,0.00019101,0.00012104,-0.00002439,0.00006216,-0.00006369,-0.00
 006243,-0.00001583,0.00000962,-0.00011947,-0.00010807,0.00367429,-0.00
 750740,0.00780286,0.00111893,0.00218153,-0.00192680,-0.00127835,0.0000
 2328,-0.00188165,-0.00011470,-0.00033564,0.00015854,0.00024027,0.00028
 486,0.00014481,-0.00047404,0.00042029,-0.00018843,-0.00000111,0.000178
 06,0.00004007,0.00011530,-0.00005519,0.00006144,0.00013597,-0.00005047
 ,0.00007830,0.00007459,-0.00022242,-0.00069767,-0.00022360,-0.00003680
 ,-0.00003471,-0.00001317,0.00004315,0.00000719,-0.00003927,0.00022502,
 -0.00009380,0.00002758,0.00002444,-0.00003492,-0.00002248,0.00002241,0
 .00000327,0.00000652,0.00000351,0.00000803,-0.00002381,0.00006239,0.00
 001153,0.00918541,0.01747419,-0.02721957,-0.00183207,-0.00012821,-0.00
 261185,0.00343073,0.01672111,0.05431781,0.00914037,0.02570599,-0.06153
 623,-0.01039454,0.04276687,-0.05739333,0.00961914,-0.01363953,0.011542
 64,-0.01537732,-0.00133426,0.00641634,0.00124565,-0.00126081,0.0020165
 7,0.00295984,0.00888588,-0.01218977,-0.02608850,-0.17004522,0.14439509
 ,-0.00004192,0.00000711,-0.00000063,0.00000823,0.00004057,0.00004458,0
 .00009866,0.00013865,0.00001268,0.00004493,-0.00004334,0.00009904,-0.0
 0005741,-0.00000699,0.00001161,0.00001831,0.00000073,0.00000325,0.0000
 0535,-0.00000173,0.00000188,0.00003234,0.00001241,0.00007341,0.0000283
 0,0.00000628,-0.00000645,0.00000328,-0.00000069,-0.00000310,-0.0000006
 9,-0.00000173,-0.00000451,-0.00032150,0.00017550,0.00068449,0.00004238
 ,0.00000202,0.00005196,0.00009709,-0.00002746,-0.00015000,0.00005092,-
 0.00001043,-0.00001913,0.00001141,-0.00000132,-0.00001442,-0.00023325,
 0.00011842,-0.00003528,0.00043696,-0.00028540,-0.00016473,0.00003322,0
 .00010478,-0.00005291,-0.00000698,-0.00000501,-0.00001707,0.00000943,0
 .00000084,0.00000406,0.00000871,-0.00000390,0.00000669,-0.00003257,0.0
 0011975,-0.00020057,0.00003313,-0.00000209,0.00003252,0.00001651,0.000
 00996,0.00004951,0.00000650,0.00000017,0.00000440,-0.00000418,-0.00000
 087,0.00000210,-0.00001768,0.00000153,-0.00001033,0.00000498,-0.000002
 41,0.00000200,-0.00000006,0.00000034,-0.00000344,0.00001156,-0.0000057
 8,-0.00001044,-0.00001249,0.00000854,0.00000342,0.00001062,-0.00000047
 ,0.00000136,0.00000001,0.00000013,-0.00000065,-0.00000745,-0.00000596,
 0.00000360,0.00000241,0.00000104,0.00000492,0.00000078,-0.00000019,-0.
 00000283,0.00000014,-0.00000093,0.00000005,-0.00000042,-0.00000737,0.0
 0000058,0.00004345,-0.00002236,0.00013200,-0.00008339,-0.00013120,-0.0
 0036359,0.00032402,-0.00007597,-0.00049901,-0.00647466,-0.02682581,0.0
 1229308,0.01034419,0.01879431,-0.00892908,-0.00571056,0.00036161,-0.00
 071638,-0.00224131,0.00317020,-0.00007805,0.00069673,-0.00030730,-0.00
 017336,-0.00213064,0.00077294,-0.00004184,-0.08692886,-0.08067159,0.03
 346242,0.09113134,0.00010353,0.00010500,-0.00001694,-0.00016171,-0.000
 07580,-0.00006375,0.00043525,0.00022502,0.00051608,-0.00001720,-0.0000
 2059,0.00009229,0.00000955,0.00000119,-0.00003805,0.00000994,-0.000065
 06,-0.00000939,-0.00001750,-0.00000214,0.00000483,-0.00001413,0.000006
 95,-0.00005370,0.00000348,0.00001152,0.00001643,-0.00000385,0.00000591
 ,0.00000450,0.00000137,0.00000159,0.00001054,-0.00030751,0.00082223,-0
 .00048741,0.00013720,-0.00008619,0.00010512,0.00027549,-0.00147264,-0.
 00116254,0.00002879,0.00020551,-0.00010555,-0.00001299,0.00000474,0.00
 000186,0.00022672,-0.00023581,0.00002510,-0.00010449,-0.00138111,-0.00
 123568,-0.00019833,-0.00003385,0.00019230,-0.00001424,-0.00000064,-0.0
 0001061,0.00000469,0.00000030,-0.00000570,-0.00001701,-0.00000653,-0.0
 0000395,0.00016214,-0.00002366,-0.00017862,0.00014087,0.00007604,-0.00
 008759,-0.00004108,0.00000637,-0.00003932,-0.00001706,0.00000621,-0.00
 001196,0.00001504,0.00001929,0.00000392,-0.00001755,-0.00001634,-0.000
 00519,-0.00001129,0.00000250,-0.00000240,0.00000262,-0.00000518,0.0000
 0117,-0.00000425,0.00000645,0.00002349,0.00001078,0.00000303,-0.000000
 59,-0.00001761,0.00000628,-0.00000487,0.00000054,0.00000267,-0.0000002
 9,0.00000706,0.00001203,-0.00000656,-0.00000325,-0.00000092,-0.0000053
 1,-0.00000159,-0.00000126,0.00000400,0.00000153,0.00000160,0.00000004,
 0.00000012,0.00001003,-0.00000120,-0.00008397,-0.00004647,-0.00019327,
 0.00004527,0.00005418,-0.00015727,0.00082431,0.00041553,-0.00318240,-0
 .00130707,-0.00485367,0.00235337,-0.00973883,-0.01787178,0.00872723,-0
 .00117233,0.00249354,0.00015721,0.00484584,-0.00056456,0.00095636,0.00
 036482,0.00045520,-0.00095366,0.00076350,-0.00000210,0.00003838,-0.081
 85595,-0.27054483,0.09667871,0.08585032,0.29214274,0.00040228,0.000180
 67,0.00004892,-0.00059070,0.00032687,-0.00028684,0.00134084,0.00015715
 ,0.00145553,-0.00037572,-0.00028770,0.00019301,-0.00002682,-0.00004384
 ,-0.00004054,-0.00013297,-0.00021365,-0.00003717,0.00000527,-0.0000038
 3,0.00000490,0.00005850,-0.00003456,0.00004678,-0.00002642,-0.00002770
 ,-0.00002603,-0.00000491,0.00000208,-0.00001196,0.00000686,-0.00001055
 ,0.00000735,-0.00139918,0.00206044,-0.00053149,0.00143525,-0.00046295,
 -0.00001077,0.00040912,0.00028766,0.00012224,-0.00032212,0.00100113,-0
 .00036782,-0.00010101,0.00001055,0.00003230,0.00067079,-0.00067721,0.0
 0039044,-0.00075471,-0.00128520,-0.00034271,-0.00077141,-0.00036063,0.
 00054985,-0.00004446,-0.00000354,-0.00003888,0.00003448,0.00003133,-0.
 00000877,-0.00009803,-0.00001237,-0.00001789,0.00041787,-0.00024603,0.
 00035155,0.00055072,0.00022014,-0.00038303,-0.00024079,-0.00016217,-0.
 00031676,-0.00001540,0.00002551,-0.00003141,0.00003145,0.00004761,0.00
 002690,-0.00003317,-0.00002320,-0.00001587,-0.00002079,0.00001146,0.00
 000276,0.00001026,-0.00001292,-0.00000483,-0.00000792,0.00001107,0.000
 00057,-0.00000392,-0.00000196,0.00004212,0.00000157,-0.00001438,0.0000
 0315,-0.00000956,0.00001044,-0.00000618,0.00000064,0.00000053,0.000008
 07,0.00000531,0.00000210,-0.00000356,-0.00000329,0.00000673,-0.0000002
 5,-0.00000611,0.00000215,-0.00000180,-0.00000115,0.00000425,0.00000127
 ,-0.00031266,-0.00040232,-0.00129691,-0.00010411,0.00050348,0.00014554
 ,0.00221341,0.00285495,-0.01077786,-0.00523948,-0.00540919,0.00250930,
 0.00105657,-0.00516170,0.00232571,-0.00126599,0.00239208,0.00189702,0.
 00170770,0.00189250,0.00234059,-0.00001160,-0.00016835,-0.00163358,-0.
 00032874,-0.00121530,-0.00017536,0.03690871,0.10487359,-0.06476058,-0.
 03551678,-0.10035675,0.06992255,0.00007361,0.00003503,0.00000804,-0.00
 013355,0.00003693,-0.00006897,0.00046534,0.00000025,-0.00013069,-0.000
 11905,-0.00007734,-0.00003588,0.00003064,0.00000373,0.00004900,-0.0000
 6478,-0.00002607,-0.00002124,-0.00000404,0.00000402,0.00000295,-0.0000
 1270,0.00001663,0.00002075,0.00000781,0.00000710,-0.00001595,-0.000005
 06,-0.00000411,0.00000030,-0.00000112,0.00000128,0.00000058,-0.0001112
 4,0.00017114,-0.00006231,-0.00003691,-0.00009591,0.00003107,0.00001933
 ,0.00004633,0.00003092,-0.00003206,0.00005209,-0.00005910,0.00007071,-
 0.00001034,0.00006441,0.00002102,-0.00002965,0.00000059,-0.00001025,-0
 .00000664,0.00000104,-0.00002987,-0.00002519,0.00001729,-0.00000356,0.
 00001508,0.00000744,-0.00000248,-0.00000406,0.00000152,0.00000310,0.00
 000072,0.00000750,0.00031884,0.00005062,-0.00053960,-0.00015813,0.0000
 5041,-0.00002659,-0.00002082,0.00004438,0.00011926,-0.00004022,-0.0000
 0677,0.00004349,0.00000889,0.00000500,0.00000284,-0.00005219,-0.000011
 16,-0.00002121,0.00001128,0.00000745,-0.00000293,-0.00000135,-0.000004
 29,0.00001126,0.00002361,-0.00001426,0.00000677,0.00004699,0.00002162,
 -0.00004577,-0.00000581,0.00000060,-0.00000424,0.00000212,-0.00000032,
 0.00000199,-0.00000601,0.00001162,-0.00000627,0.00000087,0.00000037,0.
 00000231,0.00000033,-0.00000049,-0.00000202,0.00000277,-0.00000110,0.0
 0000174,-0.00000170,-0.00000211,0.00000093,0.00076805,0.00084752,0.001
 09815,-0.00063732,-0.00076346,-0.00113049,-0.00089643,-0.00090722,-0.0
 0023771,-0.01341597,-0.01374798,0.00211526,-0.00041356,0.00043932,-0.0
 0021491,-0.20010727,-0.02668321,-0.00345321,0.00088565,0.00179744,-0.0
 0099334,-0.00003273,-0.00000525,0.00005214,-0.02642253,0.00505729,-0.0
 0354211,0.00416643,0.00083372,0.00029532,0.00026888,0.00021501,-0.0002
 3712,0.48381138,-0.00002500,0.00002948,-0.00000425,0.00003864,-0.00000
 430,0.00003291,-0.00004615,0.00006947,0.00009223,0.00002201,-0.0000398
 4,-0.00000158,0.00002674,-0.00002868,-0.00000691,0.00004235,0.00002513
 ,0.00001244,0.00000294,-0.00000768,-0.00000358,0.00000312,0.00000488,-
 0.00001892,-0.00000110,0.00000867,0.00000748,0.00000837,0.00000901,0.0
 0000327,0.00000633,0.00000185,0.00000274,-0.00003535,-0.00002748,0.000
 08367,0.00003082,0.00005045,0.00005495,-0.00006705,-0.00003061,-0.0000
 1524,0.00000600,-0.00000757,-0.00000352,-0.00001212,-0.00000120,-0.000
 04710,-0.00000277,0.00002416,-0.00004495,0.00005958,0.00002794,0.00001
 320,-0.00002272,0.00002398,-0.00001529,-0.00000315,-0.00000756,-0.0000
 0445,0.00000514,0.00001718,-0.00000059,0.00000233,0.00000915,-0.000000
 38,-0.00014651,0.00023248,-0.00034324,0.00008382,-0.00013521,0.0001496
 4,0.00002235,-0.00005211,0.00003877,-0.00002391,0.00002072,0.00000591,
 -0.00002723,-0.00003716,-0.00002492,0.00011965,-0.00005489,0.00008595,
 -0.00001561,-0.00002847,-0.00000795,-0.00000995,0.00000604,-0.00001471
 ,-0.00005471,0.00002164,0.00000717,0.00013766,0.00003132,0.00009159,0.
 00000685,0.00001977,0.00000477,0.00000117,-0.00000281,-0.00000481,0.00
 003127,-0.00001039,-0.00000925,-0.00001103,-0.00000534,-0.00000315,0.0
 0000281,-0.00000604,0.00000778,-0.00000354,0.00000136,-0.00000391,0.00
 000742,0.00000572,-0.00000437,0.00009925,0.00004711,0.00001804,-0.0004
 7282,-0.00000797,-0.00011068,0.00045390,-0.00009042,0.00009435,-0.0318
 0522,-0.00552286,-0.00164286,0.00032763,-0.00002516,-0.00014794,-0.027
 85622,-0.09410525,0.00438173,0.00198858,-0.00366580,0.00155398,-0.0000
 6168,0.00019584,-0.00002641,0.02197212,0.01174409,0.00070530,-0.000314
 52,-0.00512289,0.00366713,-0.00169218,-0.00018728,-0.00023035,-0.02362
 407,0.58563206,0.00008525,0.00004015,-0.00000921,-0.00006022,-0.000027
 99,-0.00008300,0.00001673,-0.00001390,0.00002058,0.00002489,0.00004617
 ,0.00000559,-0.00006330,0.00001670,-0.00001032,-0.00000545,-0.00007607
 ,-0.00000524,-0.00000167,0.00000068,0.00000436,-0.00000667,-0.00000863
 ,0.00003954,-0.00000151,-0.00000420,-0.00000076,-0.00000596,-0.0000020
 2,0.00000557,-0.00000333,-0.00000250,0.00000513,-0.00017760,0.00023537
 ,-0.00014799,0.00012090,-0.00009532,0.00006678,-0.00006492,0.00004938,
 0.00007013,-0.00000940,0.00012272,-0.00001691,-0.00002343,0.00000904,-
 0.00005740,0.00009316,-0.00002595,-0.00000086,0.00000214,-0.00002787,-
 0.00004382,-0.00003123,-0.00004976,0.00008273,0.00000927,-0.00003074,-
 0.00002676,0.00000308,-0.00000172,-0.00000270,-0.00000662,-0.00000614,
 -0.00000863,-0.00008098,0.00002674,-0.00001851,0.00015563,-0.00000006,
 0.00002226,0.00003082,0.00002203,0.00001164,0.00000573,0.00000961,0.00
 000572,0.00000457,-0.00000532,-0.00000823,-0.00000524,-0.00002976,0.00
 001344,0.00000512,-0.00000557,0.00000058,-0.00000508,-0.00000213,0.000
 00570,-0.00000576,-0.00001562,-0.00000963,0.00005873,0.00001894,0.0000
 0724,0.00001116,0.00000825,0.00000054,0.00000072,-0.00000140,0.0000023
 7,-0.00000600,0.00000077,0.00000166,-0.00000003,-0.00000065,-0.0000001
 8,-0.00000008,0.00000085,-0.00000263,0.00000147,0.00000034,0.00000178,
 -0.00000218,-0.00000354,0.00000101,0.00059195,0.00037216,0.00036172,-0
 .00080770,-0.00035507,-0.00046411,0.00018559,-0.00015894,0.00025075,0.
 00602088,-0.00053189,0.00474218,-0.00064838,0.00019500,-0.00066593,-0.
 00287161,0.00605594,-0.07031562,0.00006521,0.00194834,0.00288406,-0.00
 000278,-0.00001532,-0.00042702,-0.00681911,-0.00316330,0.00476028,0.00
 113745,0.00320229,0.00721955,-0.00007067,0.00004730,0.00023682,-0.0036
 3601,-0.01544744,0.53621109,0.00008158,0.00005651,-0.00000292,-0.00006
 440,-0.00005534,-0.00006007,-0.00007985,-0.00001985,-0.00005834,0.0000
 6281,0.00001749,0.00000552,-0.00005647,0.00002245,-0.00001434,0.000006
 82,-0.00007527,-0.00000892,-0.00000151,-0.00000261,0.00000196,0.000004
 66,0.00000945,0.00003600,-0.00000056,0.00000376,-0.00000495,0.00000211
 ,0.00000573,0.00000446,0.00000300,-0.00000055,0.00000798,0.00002744,-0
 .00000366,0.00017139,-0.00001435,0.00004283,-0.00000476,-0.00002964,0.
 00000086,-0.00000604,0.00000708,-0.00000865,-0.00002502,0.00001062,-0.
 00000198,-0.00000078,-0.00001706,-0.00000763,-0.00000712,0.00002263,0.
 00001363,0.00001221,-0.00001529,0.00002319,-0.00000626,-0.00000721,0.0
 0000471,0.00000078,0.00000096,0.00000730,-0.00000283,0.00000109,0.0000
 0582,0.00000148,0.00003153,-0.00004595,-0.00016257,-0.00011122,-0.0000
 0332,0.00007485,-0.00000411,0.00002966,0.00002908,0.00000297,-0.000043
 15,0.00001672,0.00001988,0.00000992,0.00001013,-0.00006942,0.00002373,
 -0.00005538,0.00000569,0.00001224,0.00000819,0.00000693,-0.00000090,-0
 .00000024,0.00002828,-0.00002274,0.00005981,-0.00003840,-0.00002143,-0
 .00011934,-0.00003142,0.00001529,-0.00002084,0.00000653,0.00000199,0.0
 0000174,0.00000298,0.00003376,-0.00003368,-0.00000073,0.00000131,0.000
 00054,0.00000168,-0.00000745,0.00000416,0.00000601,-0.00000188,0.00000
 171,0.00000002,0.00000310,-0.00000213,-0.00007108,-0.00009451,-0.00003
 500,0.00003204,-0.00002475,0.00017182,-0.00005399,0.00021413,-0.000208
 75,-0.00708156,0.00010813,-0.00075015,0.00035047,-0.00043886,-0.000079
 99,-0.00312734,-0.03168674,0.01160409,0.00092401,0.00036220,-0.0002552
 3,0.00000085,0.00012457,-0.00002097,-0.00214785,-0.00477815,0.00134322
 ,0.00027810,-0.00152553,0.00060157,-0.00057093,-0.00011744,-0.00013251
 ,-0.05105133,-0.02958313,0.01132304,0.05906762,-0.00001110,-0.00002047
 ,-0.00000238,0.00000716,0.00000216,-0.00000223,0.00000034,0.00001673,0
 .00001661,-0.00000376,0.00001349,-0.00000287,0.00000335,0.00001035,0.0
 0000061,-0.00001083,0.00000892,-0.00000031,-0.00000369,0.00000337,0.00
 000093,0.00000023,-0.00000640,0.00000382,0.00000218,0.00000014,0.00000
 652,-0.00000263,-0.00000389,-0.00000065,-0.00000363,-0.00000021,-0.000
 00207,0.00000669,0.00000889,-0.00008658,-0.00000650,-0.00003810,0.0000
 0876,-0.00000054,-0.00000904,-0.00000753,-0.00001447,0.00000695,0.0000
 0811,-0.00000581,-0.00000536,0.00001429,0.00001044,0.00001351,-0.00000
 991,0.00000439,0.00000300,-0.00000461,0.00000539,-0.00000563,-0.000000
 46,0.00000654,-0.00000344,0.00000114,-0.00000066,-0.00000199,0.0000029
 2,0.00000187,-0.00000390,-0.00000023,-0.00030103,-0.00024559,0.0003069
 9,0.00025852,0.00013676,-0.00000164,0.00005967,0.00004879,-0.00006849,
 0.00004631,0.00000110,-0.00003031,0.00000133,0.00000643,0.00000125,-0.
 00006511,-0.00000107,-0.00003177,0.00000578,0.00000023,0.00000100,0.00
 000243,-0.00000120,0.00000577,0.00003807,0.00002727,0.00000491,-0.0000
 6363,0.00004958,0.00002015,0.00000446,-0.00001810,-0.00000041,-0.00000
 060,-0.00000202,0.00000201,-0.00000264,-0.00001501,0.00001511,0.000003
 45,0.00000274,0.00000470,0.00000024,0.00000176,-0.00000155,0.00000073,
 -0.00000205,0.00000037,0.00000002,-0.00000330,-0.00000042,0.00003594,0
 .00015117,-0.00028878,-0.00000361,-0.00004820,0.00015516,0.00002695,-0
 .00006563,0.00024386,-0.00045906,0.00048149,0.00015215,-0.00014965,0.0
 0009766,0.00000339,-0.00490973,-0.00613586,0.00102911,-0.00043865,-0.0
 0025778,0.00023479,-0.00002301,-0.00003194,-0.00001584,0.00109581,-0.0
 0207774,0.00078877,-0.00006135,-0.00025098,0.00020664,-0.00010863,-0.0
 0001538,-0.00005083,-0.03389112,-0.28883925,0.08516005,0.03677821,0.31
 173651,-0.00000690,0.00000985,-0.00000515,0.00001100,0.00000277,0.0000
 0474,-0.00001276,0.00001823,0.00001225,0.00000996,-0.00001172,0.000004
 85,0.00000288,-0.00000895,-0.00000437,0.00001275,0.00000511,0.00000312
 ,-0.00000029,-0.00000270,0.00000207,-0.00000354,0.00000125,0.00000694,
 -0.00000002,0.00000156,0.00000305,0.00000263,0.00000326,0.00000122,0.0
 0000223,0.00000035,0.00000189,0.00004107,-0.00002635,0.00001453,-0.000
 01271,0.00000937,-0.00001947,-0.00002218,0.00000244,0.00000102,-0.0000
 0347,-0.00000191,-0.00001233,0.00001283,-0.00000845,0.00002603,-0.0000
 0292,-0.00000197,0.00000709,0.00000121,-0.00000331,0.00000311,-0.00000
 433,0.00001230,-0.00000518,-0.00000442,0.00000728,0.00000727,-0.000000
 88,0.00000257,-0.00000107,-0.00000056,0.00000230,0.00000011,-0.0001750
 6,-0.00012438,0.00001846,0.00009477,0.00009380,0.00005496,0.00004706,0
 .00004786,0.00000875,0.00004581,-0.00003109,0.00000261,0.00000140,0.00
 000968,0.00000709,-0.00009176,0.00002885,-0.00007622,0.00000652,-0.000
 00130,0.00000397,0.00000573,-0.00000094,0.00000158,0.00005067,0.000009
 18,0.00004231,-0.00012009,-0.00000448,-0.00006279,-0.00001074,0.000005
 14,-0.00001323,0.00000492,-0.00000080,0.00000277,-0.00000687,0.0000035
 8,0.00000116,0.00000094,0.00000313,0.00000854,0.00000154,-0.00000470,0
 .00000114,0.00000572,-0.00000300,0.00000074,0.00000112,-0.00000302,-0.
 00000306,0.00002293,0.00008249,-0.00005199,0.00005784,-0.00011580,0.00
 006463,0.00007494,-0.00000405,0.00002568,-0.00049113,0.00024865,0.0004
 5756,0.00004199,0.00002273,-0.00000376,0.00076708,-0.00219778,-0.00067
 463,0.00008299,0.00010908,0.00019436,0.00000437,0.00001190,-0.00002980
 ,-0.00009620,0.00097419,0.00056300,-0.00017515,-0.00009147,0.00042293,
 -0.00008966,-0.00002423,-0.00003578,0.01321633,0.08509212,-0.08027487,
 -0.01238316,-0.09333423,0.08236501,0.00005545,-0.00001769,0.00000108,-
 0.00005079,-0.00006765,-0.00005921,-0.00011637,-0.00003709,-0.00006179
 ,0.00005244,0.00010321,-0.00000225,-0.00007360,0.00006180,-0.00000967,
 -0.00003706,-0.00006657,-0.00001537,-0.00000826,0.00000960,0.00000091,
 0.00000558,-0.00000820,0.00002593,0.00000075,-0.00000654,0.00000195,-0
 .00001045,-0.00000957,0.00000090,-0.00000869,-0.00000222,-0.00000062,-
 0.00002359,0.00009282,-0.00012877,0.00001699,-0.00007555,0.00004130,0.
 00000864,0.00000903,0.00002246,0.00000647,0.00003184,0.00001761,-0.000
 02580,-0.00000198,-0.00002147,0.00004525,0.00000766,-0.00000315,-0.000
 00324,0.00000141,-0.00002672,0.00001730,-0.00003475,0.00002698,0.00001
 325,-0.00001618,-0.00000672,-0.00000231,-0.00001207,0.00000163,0.00000
 133,-0.00000805,-0.00000528,-0.00023107,-0.00028218,0.00048232,0.00027
 186,0.00011896,-0.00005658,0.00004393,0.00005197,-0.00009764,0.0000289
 8,0.00001489,-0.00003784,0.00001504,0.00000751,0.00000377,-0.00003023,
 0.00000812,-0.00003513,0.00000745,0.00001298,0.00000449,0.00000138,-0.
 00000328,0.00001137,0.00001055,-0.00000626,-0.00000579,-0.00004340,0.0
 0000606,0.00001606,0.00000368,-0.00001841,0.00000154,-0.00000257,-0.00
 000059,0.00000259,-0.00000688,0.00000102,0.00000552,0.00000550,0.00000
 177,-0.00000217,-0.00000184,0.00000573,-0.00000357,-0.00000068,-0.0000
 0035,0.00000152,-0.00000328,-0.00000103,0.00000303,-0.00000531,0.00003
 175,-0.00044656,-0.00017457,0.00001265,0.00026355,-0.00008348,0.000200
 10,0.00050993,0.00011334,0.00224582,-0.00017794,-0.00011921,-0.0002017
 1,-0.00017499,-0.01622745,0.00118235,-0.02823626,-0.00007627,0.0009404
 4,0.00063668,-0.00001934,-0.00001744,-0.00014036,-0.00273997,-0.003479
 00,0.00017084,-0.00028526,0.00038888,0.00116412,-0.00015835,-0.0000522
 8,0.00004741,-0.07478072,0.00531893,-0.08742490,0.00089352,0.00066949,
 0.00433713,0.08567076,0.00004959,0.00001435,0.00000166,-0.00004999,-0.
 00003161,-0.00004572,0.00000801,-0.00003849,-0.00005763,0.00001125,0.0
 0003459,-0.00000250,-0.00003727,0.00002222,0.00000176,-0.00002001,-0.0
 0004606,-0.00001026,-0.00000362,0.00000225,0.00000126,-0.00000198,0.00
 000032,0.00001545,-0.00000114,-0.00000245,-0.00000750,-0.00000440,-0.0
 0000168,0.00000136,-0.00000085,-0.00000073,0.00000160,-0.00003677,0.00
 009423,-0.00002041,0.00002134,-0.00002416,0.00000999,-0.00000537,0.000
 04018,0.00005041,0.00000063,0.00003651,-0.00001009,0.00000902,0.000003
 11,0.00001902,0.00004259,-0.00003112,0.00001530,-0.00000649,-0.0000047
 2,-0.00001391,-0.00000857,-0.00002888,0.00002925,0.00000054,-0.0000023
 3,-0.00000744,-0.00000358,-0.00000732,-0.00000326,-0.00000164,-0.00000
 597,-0.00000239,0.00001457,-0.00009948,0.00004296,0.00000724,0.0000588
 7,-0.00003342,0.00000742,0.00002924,-0.00000067,0.00001330,-0.00001533
 ,0.00000119,0.00001154,0.00001206,0.00000764,-0.00005670,0.00001828,-0
 .00003090,0.00000674,0.00000600,0.00000249,0.00000388,-0.00000219,0.00
 000542,0.00003146,-0.00000025,0.00000962,-0.00004612,-0.00000403,-0.00
 004377,-0.00001130,-0.00000014,-0.00000704,0.00000199,0.00000052,0.000
 00215,-0.00000833,0.00000754,-0.00000131,0.00000167,0.00000223,0.00000
 387,0.00000035,-0.00000134,0.00000016,0.00000297,-0.00000169,0.0000009
 0,-0.00000048,-0.00000060,-0.00000101,0.00016364,0.00014035,0.00011621
 ,0.00002742,-0.00010397,-0.00005822,-0.00019202,-0.00001406,0.00006095
 ,-0.00128490,-0.00085092,0.00053528,-0.00010757,-0.00014163,-0.0001038
 7,-0.00213592,-0.00004330,-0.00735699,0.00022083,0.00014503,0.00028924
 ,0.00001826,0.00000139,-0.00009588,-0.00073626,-0.00137302,0.00029775,
 0.00038932,0.00026354,0.00079265,-0.00005965,-0.00003535,-0.00002614,0
 .00391692,-0.04601656,0.01477488,0.01093503,0.00133253,0.02911245,-0.0
 0473997,0.04548872,-0.00001177,-0.00002173,0.00000297,0.00001478,0.000
 00061,0.00000789,-0.00000412,-0.00004552,-0.00005412,-0.00000795,0.000
 02424,-0.00000398,0.00000058,0.00000179,0.00000064,-0.00000306,0.00000
 787,-0.00000124,0.00000033,0.00000327,-0.00000176,0.00000600,-0.000006
 44,-0.00000459,0.00000105,-0.00000370,0.00000346,-0.00000437,-0.000004
 64,-0.00000173,-0.00000462,-0.00000053,-0.00000163,0.00007635,-0.00010
 024,0.00001819,-0.00004769,-0.00001364,-0.00005935,0.00000577,0.000001
 15,-0.00001682,-0.00001406,0.00000597,0.00001995,0.00001103,0.00001269
 ,0.00002901,0.00000914,0.00000271,0.00001337,-0.00000852,0.00000128,-0
 .00000476,0.00002267,-0.00001126,0.00001593,0.00000282,0.00000435,-0.0
 0000592,-0.00000493,-0.00001008,0.00000124,0.00000105,-0.00001127,-0.0
 0000093,0.00028155,0.00005658,0.00007473,-0.00017094,-0.00003949,-0.00
 009919,-0.00008172,-0.00005216,-0.00004265,-0.00003707,0.00001625,0.00
 000452,0.00000337,0.00000617,0.00000161,0.00004237,-0.00001175,0.00001
 745,-0.00000519,0.00000677,-0.00000227,-0.00000106,-0.00000243,0.00000
 174,-0.00003580,-0.00000072,-0.00002034,0.00003277,-0.00002060,0.00002
 976,0.00001232,-0.00001251,0.00000803,-0.00000667,0.00000203,-0.000002
 28,0.00000450,-0.00000285,0.00000419,0.00000261,-0.00000037,-0.0000054
 7,-0.00000192,0.00000648,-0.00000197,-0.00000598,0.00000179,-0.0000008
 5,-0.00000133,0.00000183,0.00000304,0.00002711,0.00002337,0.00005448,0
 .00012245,0.00007498,-0.00000795,-0.00004292,0.00021401,0.00020693,0.0
 0014736,0.00264369,0.00038923,0.00009188,-0.00013164,0.00004508,-0.002
 61026,-0.00133660,0.00434346,-0.00003725,-0.00005556,-0.00010990,-0.00
 000437,-0.00001941,0.00000331,0.00075462,-0.00078739,-0.00071263,-0.00
 062137,-0.00036478,-0.00047464,-0.00007451,0.00001908,0.00003913,-0.08
 333794,0.01562436,-0.26968547,-0.00254259,-0.00059590,-0.00910978,0.09
 377576,-0.01631436,0.29286833,0.00002994,-0.00004155,0.00000702,-0.000
 04497,-0.00004442,-0.00004053,-0.00003669,0.00000148,-0.00007029,0.000
 02891,0.00008412,-0.00001116,-0.00004243,0.00006077,0.00000509,-0.0000
 5627,-0.00003706,-0.00001918,-0.00000763,0.00000927,0.00000224,-0.0000
 0202,-0.00000187,0.00001214,-0.00000490,-0.00001070,-0.00000398,-0.000
 00810,-0.00000941,0.00000046,-0.00000480,-0.00000145,-0.00000270,-0.00
 006231,0.00015132,-0.00022366,0.00003342,-0.00004648,0.00012858,0.0000
 3552,-0.00001933,0.00001910,0.00007125,-0.00001481,0.00004888,-0.00004
 272,-0.00000460,-0.00010612,0.00002365,0.00003645,-0.00001183,-0.00000
 330,0.00001115,-0.00002894,0.00005221,-0.00004844,0.00000004,0.0000169
 5,-0.00002615,-0.00000897,0.00000050,-0.00000730,0.00000058,0.,-0.0000
 0029,-0.00000970,-0.00050324,-0.00030772,0.00033280,0.00051341,0.00013
 184,0.00010879,0.00012757,0.00008289,-0.00004333,0.00005339,0.00000869
 ,-0.00003072,0.00000323,-0.00001183,-0.00000373,-0.00003657,0.00000670
 ,-0.00003439,0.00001387,0.00000575,0.00000393,-0.00000128,0.00000053,0
 .00001125,0.00003309,-0.00000386,0.00001258,-0.00004441,0.00003339,-0.
 00000132,-0.00000194,-0.00001288,-0.00000322,0.00000230,-0.00000399,0.
 00000419,-0.00000545,-0.00000311,0.00000381,0.00000286,0.00000123,0.00
 000279,0.00000077,0.00000110,-0.00000262,0.00000268,-0.00000208,0.0000
 0202,-0.00000161,-0.00000403,0.00000076,-0.00002394,0.00007688,-0.0006
 2775,-0.00062501,0.00003678,0.00018677,-0.00039025,-0.00004259,0.00071
 174,0.00057108,0.00235511,-0.00120688,-0.00007416,0.00006683,0.0000653
 3,-0.01960284,0.01801143,0.01577351,-0.00058189,0.00070662,-0.00097501
 ,0.00000349,-0.00002624,0.00003092,-0.00360400,-0.00282442,0.00122702,
 -0.00019717,-0.00009040,-0.00152916,0.00007326,-0.00003918,0.00004058,
 -0.11810211,0.08722322,0.08053974,0.00210860,-0.00248827,-0.00391117,0
 .00639281,-0.00745781,-0.00606289,0.13270022,0.00004957,0.00001983,0.0
 0000942,-0.00006236,-0.00001318,-0.00003295,0.00010178,-0.00005594,-0.
 00010791,-0.00001577,0.00000405,-0.00000577,-0.00001782,0.00001032,0.0
 0000950,-0.00002101,-0.00003734,-0.00001245,-0.00000102,0.00000163,-0.
 00000133,0.00000161,0.00000517,0.00000545,-0.00000007,-0.00000153,-0.0
 0000972,-0.00000296,-0.00000053,0.00000050,0.00000021,-0.00000032,0.00
 000195,0.00002246,-0.00000854,0.00007670,-0.00004505,0.00000184,0.0000
 1848,0.00001200,0.00002051,-0.00001507,0.00002135,0.00001101,-0.000008
 85,0.00002592,0.00001472,-0.00000115,-0.00000436,-0.00000748,0.0000129
 3,-0.00000682,0.00000016,-0.00000068,0.00000867,-0.00001288,0.00001754
 ,-0.00000090,0.00000413,-0.00000384,-0.00000028,-0.00000346,-0.0000020
 7,0.00000024,0.00000121,-0.00000005,0.00043427,0.00013145,-0.00030048,
 -0.00031871,-0.00008846,-0.00004882,-0.00008671,-0.00002730,0.00005588
 ,-0.00005288,-0.00000711,0.00003686,0.00001090,0.00000609,0.00000591,0
 .00000469,-0.00000081,0.00001280,-0.00000077,0.00001123,-0.00000026,0.
 00000118,-0.00000237,0.00000148,-0.00001961,-0.00001910,-0.00000207,0.
 00004245,-0.00003338,-0.00005183,-0.00000936,0.00000452,-0.00000206,-0
 .00000054,0.00000272,-0.00000125,0.00000048,0.00001685,-0.00001465,0.0
 0000020,-0.00000095,-0.00000586,-0.00000117,0.00000019,0.00000057,-0.0
 0000083,0.00000140,0.00000034,-0.00000153,0.00000431,0.00000187,0.0001
 6226,0.00004892,0.00043781,-0.00005216,0.00002255,-0.00028567,-0.00038
 306,0.00004247,-0.00011232,-0.00076793,-0.00143679,0.00101345,0.000019
 27,-0.00029689,0.00002868,-0.00352271,0.00685168,0.00696027,0.00019134
 ,0.00012384,-0.00042847,0.00002266,0.00001382,0.00002784,-0.00160489,-
 0.00167913,-0.00015501,0.00039863,0.00017269,-0.00060529,0.00007376,0.
 00005487,-0.00001231,0.08514501,-0.15045378,-0.09304178,0.01533377,-0.
 01557925,-0.01939385,-0.00149065,0.00076311,0.00166821,-0.09413316,0.1
 6068120,-0.00003374,0.00000267,-0.00000426,0.00003755,0.00004042,0.000
 01451,0.00008549,0.00003021,-0.00004076,-0.00002185,-0.00004976,-0.000
 01575,0.00003781,-0.00003104,0.00001169,0.00001810,0.00003969,0.000008
 59,0.00000198,-0.00000342,0.00000061,-0.00000565,0.00000093,0.00000089
 ,0.00000320,0.00000490,0.00000528,0.00000413,0.00000356,0.00000142,0.0
 0000226,0.00000098,-0.00000024,0.00007871,-0.00010835,0.00002303,-0.00
 006524,-0.00007051,0.00001456,-0.00000974,0.00001891,-0.00004192,-0.00
 002083,0.00003059,-0.00004616,0.00002322,-0.00001565,0.00000907,0.0000
 0865,-0.00000116,-0.00002588,0.00000670,0.00000116,0.00001226,-0.00003
 762,0.00001489,-0.00000247,-0.00000401,0.00000917,0.00001638,0.0000025
 5,0.00000832,0.00000167,0.00000317,0.00001245,0.00000513,-0.00022866,0
 .00002800,-0.00022598,0.00016874,0.00001614,0.00014515,0.00005160,0.00
 002673,0.00004190,0.00001873,0.00000481,0.00000909,-0.00001083,-0.0000
 0991,-0.00000504,0.00000284,-0.00000924,-0.00000890,0.00000048,-0.0000
 1200,-0.00000185,-0.00000258,0.00000176,-0.00000256,0.00001084,0.00000
 321,0.00000694,-0.00001408,0.00002359,0.00001992,0.00000665,0.00000526
 ,0.00000064,0.00000356,-0.00000230,0.00000001,0.00000002,-0.00000784,0
 .00000291,-0.00000197,-0.00000084,0.00000219,0.00000118,-0.00000340,0.
 00000058,0.00000220,-0.00000065,0.,0.00000132,-0.00000218,-0.00000120,
 0.00035137,0.00028089,0.00027176,-0.00027472,-0.00009505,-0.00012607,-
 0.00002517,-0.00022107,0.00019429,0.00108148,-0.00007095,0.00099638,0.
 00001228,-0.00002527,0.00000293,-0.00259714,0.00297678,0.00200965,-0.0
 0012250,0.00007766,-0.00003633,-0.00001583,-0.00000682,0.00001430,-0.0
 0049778,0.00040578,-0.00054747,-0.00043557,0.00009154,-0.00020134,0.00
 004428,0.00001602,0.00000457,0.08020609,-0.09281153,-0.12873017,-0.007
 40825,0.00650593,0.00747704,0.01636850,-0.02036026,-0.01827913,-0.0858
 6442,0.10307680,0.13745955,-0.00001851,-0.00016545,0.00012316,0.000120
 05,0.00018178,0.00002850,-0.00008257,-0.00008493,0.00007365,0.00005540
 ,0.00008274,-0.00000154,-0.00004465,0.00004840,-0.00000903,-0.00013576
 ,-0.00002895,0.00002332,-0.00003891,0.00007179,-0.00012612,0.00012652,
 -0.00006003,-0.00004349,-0.00000415,-0.00000420,0.00002152,-0.00001022
 ,-0.00000195,-0.00001187,-0.00001594,-0.00001866,-0.00003111,-0.000036
 72,-0.00003102,-0.00021608,-0.00000835,-0.00005626,0.00002587,0.000005
 54,-0.00001914,-0.00001248,0.00000170,-0.00001738,0.00005317,-0.000012
 61,-0.00000205,-0.00000808,0.00004635,0.00002077,-0.00002349,0.0000169
 5,0.00001034,-0.00001043,0.00002647,-0.00004355,0.00000460,0.00001268,
 -0.00000720,-0.00000416,-0.00000209,-0.00001241,0.00000615,0.00000272,
 -0.00000924,-0.00000430,0.00000258,-0.00026556,0.00046813,0.00011563,0
 .00011199,-0.00011391,-0.00004982,0.00003046,-0.00011434,-0.00023117,-
 0.00025828,-0.00024034,0.00023799,0.00006676,0.00007916,-0.00014399,-0
 .00001406,0.00043469,0.00008167,0.00023034,0.00005586,0.00001325,-0.00
 001670,0.00000928,-0.00008529,0.00005293,0.00036240,0.00002192,-0.0000
 0770,0.00000519,-0.00026011,-0.00003918,-0.00015194,-0.00000041,0.0000
 1267,0.00000773,0.00004241,0.00012118,-0.00004718,0.00003361,-0.000008
 03,0.00006135,0.00001273,-0.00001298,-0.00002373,0.00000663,-0.0000166
 0,-0.00000190,-0.00001057,-0.00008166,0.00001720,0.00009492,0.00019918
 ,-0.00026730,-0.00009756,0.00000284,-0.00010204,0.00035361,0.00001623,
 0.00069134,-0.00063142,-0.00071072,-0.00003699,0.00957124,-0.00248847,
 0.00100089,-0.00397963,-0.00249994,0.00069720,-0.14399869,0.06704112,-
 0.00982340,0.00081104,-0.00219265,-0.00060173,-0.02586308,0.02430594,-
 0.00356644,-0.00054652,-0.00350401,0.00157120,0.00066108,-0.00084583,0
 .00001513,-0.00033326,0.00099992,-0.00030478,0.00006096,0.00002308,-0.
 00001245,-0.00022756,0.00003055,-0.00000768,-0.00028335,0.00002496,-0.
 00004795,0.56061404,0.00001753,0.00009638,-0.00011773,0.00032565,-0.00
 006669,0.00082938,0.00039838,-0.00007766,0.00008276,-0.00003270,0.0000
 1996,-0.00002775,0.00002512,-0.00002015,0.00002771,0.00001171,0.000036
 94,-0.00005171,0.00003504,0.00001276,0.00003143,-0.00025236,0.00029351
 ,-0.00022986,0.00002928,-0.00000773,-0.00003135,-0.00000324,-0.0000055
 7,-0.00000296,-0.00001855,-0.00000100,0.00004127,-0.00023099,0.0003630
 4,-0.00015248,0.00019196,-0.00008842,0.00002394,-0.00009920,-0.0000609
 6,0.00006745,-0.00001528,0.00010204,-0.00000995,0.00000217,-0.00000422
 ,-0.00000841,0.00006253,0.00000925,-0.00002674,0.00002188,0.00000714,-
 0.00002090,-0.00002262,-0.00008503,0.00004850,0.00000491,-0.00000743,-
 0.00001166,-0.00000249,-0.00000534,0.00000327,0.00000191,-0.00000574,-
 0.00000379,0.00001845,-0.00022318,0.00004004,0.00006805,0.00010145,-0.
 00004568,-0.00002485,0.00003298,-0.00006310,0.00016993,0.00021833,0.00
 005663,-0.00002823,0.00007641,0.00009113,0.00005959,-0.00024814,-0.000
 27262,0.00008328,0.00005363,-0.00001316,-0.00000063,-0.00000280,0.0000
 0712,-0.00014430,-0.00004624,0.00050089,0.00003712,-0.00000792,-0.0001
 2459,-0.00014938,-0.00014493,-0.00008768,-0.00000450,-0.00000001,-0.00
 001122,0.00008072,0.00006990,-0.00005343,0.00000279,-0.00002155,-0.000
 04422,-0.00002072,0.00002137,0.00002034,-0.00000939,0.00000516,-0.0000
 1459,0.00001260,0.00008804,-0.00002596,0.00009712,0.00053810,0.0000128
 2,-0.00006874,-0.00006779,-0.00015391,0.00006217,-0.00096612,-0.000382
 72,0.00066065,-0.00069383,-0.00036119,0.02165482,-0.03044506,0.0060998
 7,-0.00367098,-0.00017584,0.00067831,0.05981735,-0.16048757,0.01593585
 ,0.00121080,0.00069653,-0.00163923,0.00519203,0.00903545,-0.00216510,-
 0.00505387,0.00103299,0.00400382,0.00083044,-0.00078157,-0.00026657,-0
 .00042371,0.00065368,-0.00022865,0.00013665,-0.00000573,0.00000953,-0.
 00016430,0.00002656,-0.00004793,-0.00019841,0.00003216,-0.00001768,0.0
 4645469,0.52336034,0.00005393,0.00011842,-0.00010400,0.00008704,-0.000
 02653,0.00007584,-0.00026963,-0.00006621,-0.00023965,0.00010074,0.0000
 0568,0.00002899,-0.00006821,-0.00002995,0.00001876,0.00011984,-0.00002
 572,-0.00001864,0.00004837,-0.00001416,0.00013248,-0.00023605,-0.00060
 759,-0.00013326,-0.00002227,-0.00001301,-0.00000211,0.00000605,0.00000
 114,0.00000454,0.00000621,0.00000123,0.00000257,0.00000293,0.00009066,
 0.00039677,0.00007168,0.00002834,-0.00000711,-0.00020894,0.00028283,0.
 00016002,-0.00000083,0.00014850,-0.00013394,0.00001905,0.00000083,0.00
 001528,0.00017699,-0.00014356,0.00001954,0.00001395,-0.00002032,-0.000
 05557,-0.00020451,0.00003467,0.00011045,-0.00002011,0.00000467,-0.0000
 0370,0.00000361,0.00001496,-0.00001153,-0.00000709,0.00000149,-0.00000
 701,0.00015812,-0.00024942,0.00010339,-0.00016750,0.00000021,0.0000100
 4,0.00001234,0.00013147,0.00004334,-0.00014910,-0.00004255,0.00001291,
 0.00003630,0.00006412,-0.00006258,-0.00008679,0.00031452,0.00006364,-0
 .00016454,-0.00028384,-0.00001784,-0.00000838,0.00000270,0.00000917,0.
 00032118,0.00020186,-0.00080819,0.00004201,0.00000225,0.00010643,0.000
 26427,0.00012740,0.00043401,0.00001539,-0.00000685,0.00001917,0.000051
 25,0.00008783,0.00008683,-0.00009944,0.00007988,-0.00001595,0.00000371
 ,-0.00001575,0.00002171,0.00001563,0.00000206,0.00002172,0.00000282,0.
 00009864,-0.00004692,0.00001310,-0.00011170,-0.00028080,-0.00001915,0.
 00001928,0.00014982,-0.00073156,0.00105769,0.00021531,0.00047298,0.000
 68278,-0.00060401,-0.00445799,0.00733038,0.00489365,0.00156665,0.00076
 332,0.00276480,-0.00588119,0.01381988,-0.07298405,-0.00074201,-0.00094
 220,-0.00623193,-0.00016981,-0.00245341,0.00449842,0.00088097,0.000740
 36,0.00962950,0.00048580,-0.00047679,0.00012524,0.00020233,-0.00035026
 ,0.00014006,-0.00008970,0.00000045,-0.00000460,0.00007295,-0.00000123,
 0.00001099,0.00011505,-0.00002167,0.00003647,-0.01453304,0.00545077,0.
 53570168,0.00003602,0.00007374,0.00000835,0.00005339,-0.00002338,-0.00
 010766,-0.00019194,-0.00001221,-0.00007624,0.00005901,-0.00001128,0.00
 001358,-0.00004614,0.00000557,-0.00001249,0.00004377,-0.00005685,0.000
 00335,0.00005205,-0.00000952,0.00005869,-0.00016272,-0.00003690,0.0000
 3070,-0.00000635,-0.00001075,-0.00000642,0.00000182,-0.00000659,0.0000
 0246,-0.00000233,-0.00000248,-0.00000027,0.00005476,-0.00006031,0.0000
 3035,-0.00004709,0.00002901,-0.00000706,0.00003430,-0.00002166,-0.0000
 2378,0.00000778,-0.00003126,-0.00000152,-0.00000085,0.00000453,0.00000
 150,-0.00004821,0.00001589,0.00001222,-0.00000593,0.00000247,0.0000058
 9,0.00002403,0.00003071,-0.00002079,-0.00000080,0.00000137,0.00000327,
 0.00000062,0.00000094,-0.00000057,0.00000117,0.00000204,0.00000265,-0.
 00001414,0.00013243,-0.00010159,-0.00000041,-0.00004781,0.00001769,0.0
 0002196,-0.00002842,0.00003207,-0.00000941,0.00001336,0.00002199,-0.00
 003619,0.00000096,-0.00001751,0.00001901,-0.00001051,0.00000368,0.0000
 1037,-0.00000315,-0.00001777,-0.00000683,0.00000444,0.00000258,-0.0000
 1489,0.00005539,-0.00005961,-0.00000624,0.00002206,0.00004349,0.000057
 90,-0.00006416,0.00001331,-0.00000348,-0.00000858,0.00000335,0.0000034
 5,-0.00004141,0.00003350,-0.00000499,-0.00002045,-0.00002324,-0.000002
 84,0.00001147,0.00001085,-0.00000553,-0.00000090,-0.00000004,0.0000109
 9,0.00001638,0.00000011,-0.00001504,-0.00011531,0.00003670,0.00005700,
 -0.00000381,0.00001769,-0.00015255,0.00012436,0.00006361,0.00003406,0.
 00033904,0.00027312,-0.00240279,0.00187379,-0.00065983,0.00053300,-0.0
 0054036,-0.00022247,0.00790110,0.01548093,0.01318233,0.00018142,0.0002
 9149,0.00042243,-0.00064991,0.00261239,0.00002254,0.00092581,-0.000243
 40,-0.00145662,-0.00023963,0.00026183,0.00002608,0.00001058,-0.0000568
 6,0.00000322,-0.00009050,0.00001255,0.00000849,-0.00000271,-0.00000995
 ,0.00000944,0.00000207,-0.00003011,0.00000182,-0.06969435,-0.05801557,
 -0.04222270,0.07058424,-0.00001253,-0.00003248,-0.00001058,-0.00000808
 ,0.00003501,0.00001934,0.00002009,0.00003370,0.00003020,-0.00001401,0.
 00003889,-0.00000553,-0.00000144,0.00000626,0.00000784,-0.00000718,0.0
 0001538,0.00000049,-0.00001218,-0.00000135,-0.00000404,0.00006630,-0.0
 0005861,0.00008378,0.00000439,0.00000133,0.00000490,-0.00000422,-0.000
 00537,-0.00000369,-0.00000695,-0.00000089,-0.00000236,-0.00001467,0.00
 001429,-0.00005797,0.00000710,-0.00003601,0.00001267,-0.00002190,0.000
 01873,0.00001223,-0.00000504,0.00001153,0.00001131,-0.00000412,-0.0000
 0004,0.00000137,0.00004564,-0.00000135,-0.00001428,0.00000806,0.000006
 12,-0.00001468,-0.00000967,-0.00001970,0.00001717,0.00000632,-0.000003
 22,-0.00000285,-0.00000184,-0.00000593,0.00000278,0.00000224,-0.000006
 59,-0.00000280,0.00002929,-0.00024304,0.00031018,0.00003842,0.00007706
 ,-0.00007382,-0.00002299,0.00003694,-0.00008030,-0.00000898,0.00000185
 ,-0.00001558,0.00002134,-0.00000044,-0.00000427,-0.00002245,-0.0000083
 9,-0.00001094,-0.00001672,0.00001010,0.00000899,0.00000366,-0.00000488
 ,0.00000927,0.00001800,0.00000681,-0.00002535,-0.00000204,-0.00000627,
 -0.00000240,-0.00000987,0.00001235,-0.00001608,-0.00000254,0.00000188,
 0.00000038,-0.00001215,-0.00000054,0.00000535,0.00000269,0.00000749,0.
 00000105,-0.00000087,0.00000032,-0.00000132,-0.00000239,-0.00000187,-0
 .00000569,0.00000298,-0.00000422,0.00000640,0.00004212,0.00010015,-0.0
 0022015,-0.00005572,0.00003844,0.00001468,0.00003231,0.00011269,0.0003
 2478,-0.00015799,-0.00021371,-0.00012397,0.00332309,-0.00066491,-0.000
 74008,-0.00003903,0.00005440,0.00007813,-0.00464005,-0.02317017,-0.011
 96358,0.00005634,0.00002219,-0.00078132,-0.00179964,-0.00220779,0.0010
 9525,-0.00015497,-0.00067825,0.00151378,0.00032280,-0.00032104,0.00006
 484,-0.00001112,-0.00000133,-0.00002571,0.00004730,0.00001807,-0.00001
 141,0.00003474,0.00000457,0.00000808,0.00001228,0.00002199,0.00000375,
 -0.05931496,-0.20535684,-0.11849781,0.06123242,0.22707467,-0.00003187,
 -0.00004307,-0.00003207,0.00019527,0.00013530,0.00011519,0.00000953,-0
 .00004760,0.00001202,-0.00000777,-0.00004821,0.00000326,0.00002897,-0.
 00003283,0.00000672,0.00000772,0.00003686,-0.00000093,0.00002754,0.000
 01183,0.00000767,-0.00006731,0.00022046,0.00006409,-0.00000275,-0.0000
 1493,-0.00000989,0.00000069,-0.00000588,-0.00000211,-0.00001166,-0.000
 00864,0.00000548,-0.00000624,0.00002756,-0.00002380,0.00001366,-0.0000
 1461,0.00000411,0.00000509,-0.00001508,-0.00000207,-0.00000401,-0.0000
 0075,0.00000746,-0.00000286,0.,-0.00000072,0.00000014,0.00000789,-0.00
 000357,-0.00000274,0.00000148,-0.00000244,0.00000858,-0.00001150,-0.00
 000165,0.00000286,-0.00000153,-0.00000129,-0.00000074,-0.00000171,0.00
 000124,0.00000098,-0.00000149,0.00000030,-0.00010579,0.00000215,0.0000
 7932,0.00004534,0.00001923,-0.00000742,0.00001708,0.00000490,-0.000022
 60,0.00004288,0.00012951,0.00002005,0.00002344,0.00005045,0.00007548,-
 0.00001041,0.00002011,-0.00008213,0.00006565,0.00008026,0.00001891,-0.
 00000405,0.00000230,0.00000630,-0.00011531,-0.00022556,-0.00005438,-0.
 00000485,-0.00002853,-0.00002272,0.00007218,-0.00009777,-0.00000463,-0
 .00000018,0.00000176,0.00000344,0.00009299,0.00011333,-0.00006553,0.00
 001191,-0.00006452,-0.00007634,-0.00001406,0.00002885,0.00001973,0.000
 00272,0.00001277,0.00002807,-0.00002787,0.00006669,0.00000283,0.000067
 68,0.00001305,0.00000866,-0.00002023,-0.00000085,-0.00003292,0.0000046
 0,-0.00014137,-0.00012261,-0.00015816,-0.00013096,-0.00001573,-0.00049
 994,0.00068022,-0.00022167,-0.00004776,0.00041500,-0.00031573,0.002185
 51,0.00644985,0.00403809,-0.00005339,0.00003448,0.00034422,-0.00017195
 ,-0.00192793,0.00102446,-0.00012883,0.00037688,-0.00050933,-0.00004461
 ,0.00009375,0.00000711,0.00001826,-0.00001546,0.00001688,0.00004756,-0
 .00001537,0.00000238,0.00000326,0.00001421,-0.00000564,0.00000567,0.00
 001447,-0.00000891,-0.04130666,-0.11830612,-0.12789215,0.04801083,0.12
 695783,0.13738310,0.00009277,-0.00001924,0.00001865,-0.00016013,-0.000
 00482,0.00002409,-0.00012255,-0.00002998,-0.00005167,0.00004903,0.0000
 1956,0.00000318,-0.00004251,0.00001681,-0.00000645,0.00000116,-0.00003
 832,-0.00002362,-0.00002607,-0.00001930,-0.00002866,0.00024226,0.00005
 086,-0.00006739,-0.00000385,0.00000309,-0.00001120,0.00000132,0.000011
 11,0.00000447,0.00000848,-0.00000054,0.00000797,-0.00001893,-0.0000384
 7,0.00023430,0.00002008,0.00005974,-0.00002777,-0.00003281,0.00004789,
 0.00002723,-0.00000182,0.00003087,-0.00004466,-0.00000223,0.00000946,-
 0.00000135,0.00000479,-0.00004350,0.00002509,-0.00000020,-0.00000901,0
 .00000042,-0.00004882,0.00003123,0.00001951,-0.00001286,0.00000567,-0.
 00000050,0.00000263,0.00000671,-0.00000526,-0.00000368,0.00000361,0.00
 000056,-0.00028043,0.00093673,-0.00055726,0.00005224,-0.00027515,0.000
 13903,0.00003848,-0.00025153,0.00011705,0.00013724,0.00019601,0.000070
 82,-0.00019442,-0.00008715,-0.00009611,-0.00053629,0.00030315,0.000393
 33,-0.00021196,-0.00042239,-0.00005329,-0.00001352,0.00002565,-0.00004
 183,-0.00002792,-0.00034279,0.00035184,-0.00010586,0.00005155,0.000056
 40,0.00054032,-0.00001714,0.00045117,-0.00001833,-0.00001031,-0.000066
 20,-0.00012832,-0.00018200,0.00010786,-0.00001808,0.00008756,-0.000042
 89,-0.00004437,0.00002681,0.00001522,-0.00004427,0.00002761,-0.0000384
 7,0.00002268,0.00006634,-0.00001968,-0.00004706,-0.00051477,0.00041488
 ,-0.00000980,-0.00004226,-0.00001640,-0.00006496,0.00045214,-0.0004078
 4,0.00009365,0.00039082,-0.00003804,-0.00129660,0.00014979,-0.00025343
 ,0.00034058,-0.00013952,0.00056086,0.00141900,0.00608678,-0.02016828,0
 .00007723,0.00009559,-0.00034353,-0.00054544,0.00192694,-0.00020817,0.
 00027670,0.00015959,0.00106427,-0.00002888,0.00005947,0.00005442,0.000
 04177,-0.00004796,-0.00000806,-0.00006599,-0.00000754,-0.00000551,-0.0
 0000967,-0.00001428,0.00000732,0.00000847,-0.00001160,0.00000797,-0.04
 759690,-0.00089869,0.00540485,-0.00017458,0.00248137,-0.00936900,0.047
 04046,0.00008123,0.00012242,0.00004749,-0.00040427,-0.00034964,-0.0000
 2128,0.00018408,0.00016530,0.00008402,-0.00003695,0.00016966,-0.000028
 53,-0.00004555,0.00010772,-0.00000711,-0.00005064,-0.00006564,-0.00002
 294,-0.00006731,-0.00000885,-0.00003503,0.00007662,-0.00051403,-0.0001
 1142,0.00003244,0.00004388,0.00001934,-0.00000832,0.00000861,0.0000041
 6,0.00001812,0.00002515,0.00000544,-0.00001848,-0.00004431,-0.00027484
 ,-0.00004392,-0.00003759,0.00001197,0.00005024,-0.00005943,-0.00004554
 ,0.00000443,-0.00003828,0.00005161,0.00000063,-0.00000415,-0.00000234,
 -0.00001728,0.00003797,-0.00001618,0.00000006,0.00000380,0.00001545,0.
 00005358,-0.00002054,-0.00002430,0.00001007,-0.00000283,0.00000248,-0.
 00000135,-0.00000543,0.00000575,0.00000171,-0.00000224,-0.00000023,0.0
 0037562,-0.00048180,0.00019936,-0.00004726,0.00012193,-0.00010739,-0.0
 0008094,0.00008563,-0.00005134,-0.00028173,-0.00043581,-0.00017944,0.0
 0010998,-0.00016196,-0.00008608,-0.00008030,0.00041566,0.00029742,-0.0
 0004987,0.00004885,0.00003730,0.00002382,-0.00000964,-0.00000578,-0.00
 013156,0.00008109,0.00044123,0.00005370,0.00000111,-0.00001482,0.00002
 023,0.00007433,0.00022325,-0.00001132,-0.00000759,0.00000003,-0.000179
 34,-0.00014681,0.00011092,0.00000867,0.00002003,0.00010333,0.00000926,
 -0.00002215,-0.00003257,-0.00000931,-0.00000479,-0.00004284,0.00004148
 ,-0.00011064,-0.00000224,-0.00013202,0.00049869,-0.00030476,0.00001053
 ,0.00003302,0.00005175,0.00028187,-0.00035916,0.00074652,-0.00019293,-
 0.00022375,0.00003587,0.00239855,0.00040768,-0.00017217,-0.00009022,-0
 .00027537,-0.00031408,0.00102595,-0.01309561,0.02521895,0.00011202,0.0
 0015374,0.00105167,-0.00094753,-0.00087648,0.00000663,0.00034050,-0.00
 106610,-0.00199501,0.00002173,-0.00006563,0.00000252,-0.00003878,0.000
 04149,0.00000990,0.00002266,0.00001433,-0.00000533,0.00000776,0.000000
 11,0.00000156,-0.00000643,-0.00000109,-0.00000012,-0.00266094,-0.06625
 885,0.07780687,0.00039927,0.00808975,-0.02517769,-0.00066588,0.0765500
 6,-0.00004657,0.00003894,-0.00008289,0.00015850,0.00002972,0.00021530,
 0.00015365,-0.00004077,0.00000773,-0.00003609,-0.00003823,-0.00000480,
 0.00003790,-0.00003179,0.00000732,0.00002220,0.00003050,-0.00001230,0.
 00004665,0.00000802,0.00003443,-0.00012911,0.00021105,0.00015128,0.000
 01355,-0.00001139,-0.00002923,0.00000171,-0.00000567,0.00000005,-0.000
 00915,0.00000108,0.00002674,-0.00002141,0.00007539,-0.00003195,0.00003
 064,-0.00001668,0.00000478,-0.00000847,-0.00001908,0.00000809,0.000000
 24,0.00001708,-0.00000814,0.00000157,-0.00000028,0.00000110,-0.0000031
 2,0.00000477,0.00000205,-0.00000307,-0.00000014,-0.00000440,0.00000198
 ,-0.00000870,0.00000561,0.00000061,-0.00000192,-0.00000118,-0.00000032
 ,-0.00000107,-0.00000055,0.00000037,0.00000029,0.00000045,0.00009296,-
 0.00022785,0.00012664,-0.00004588,0.00006943,-0.00002142,-0.00001375,0
 .00005672,-0.00002611,0.00030013,0.00029245,0.00018770,-0.00014248,-0.
 00004265,0.00011057,0.00082516,-0.00041173,-0.00116296,-0.00002795,0.0
 0009692,0.00005016,-0.00000991,-0.00000302,0.00002294,0.00079894,0.000
 60143,-0.00104191,-0.00005935,0.00001151,0.00002422,-0.00019233,0.0003
 3473,-0.00087449,0.00001657,0.00000401,0.00002982,-0.00013613,-0.00019
 701,0.00003864,0.00002360,-0.00002047,0.00010174,0.00004483,-0.0000445
 5,-0.00001565,0.00002060,-0.00003291,0.00000422,0.00000737,-0.00014402
 ,0.00004550,0.00005268,0.00009703,-0.00007888,0.00000522,0.00000317,-0
 .00002083,-0.00019635,-0.00026892,-0.00017931,0.00024015,0.00009580,-0
 .00000876,-0.00063679,-0.00172561,-0.00020098,-0.00003492,-0.00021653,
 -0.00000909,-0.00263315,0.00417725,-0.00034913,-0.00002275,-0.00005460
 ,0.00004434,0.00090294,0.00186158,-0.00021754,-0.00046749,0.00039718,-
 0.00003703,-0.00003231,0.00003724,0.00002781,-0.00000439,0.00000202,-0
 .00002063,-0.00002810,0.00000416,0.00000093,0.00000028,-0.00000412,0.0
 0000210,-0.00000755,-0.00000580,0.00000510,0.00709122,0.07524837,-0.28
 315303,0.00077585,0.00539866,-0.01865255,-0.00735747,-0.08491480,0.308
 96861,0.00002079,0.00005775,-0.00005785,0.00014066,0.00006197,-0.00007
 813,-0.00011428,0.00001514,-0.00003974,0.00001976,-0.00010068,0.000020
 57,0.00002505,-0.00006724,-0.00000401,0.00009504,0.00002430,0.00001149
 ,0.00005660,-0.00001445,0.00008273,-0.00019478,-0.00000677,0.00015474,
 -0.00001514,-0.00001593,-0.00000860,0.00000994,0.00000058,0.00000507,0
 .00000084,-0.00000240,0.00000957,0.00005465,-0.00001632,0.00018981,-0.
 00000180,0.00005753,-0.00001008,-0.00003989,0.00000514,0.00000812,0.00
 000794,-0.00001105,-0.00002788,0.00000775,-0.00000240,-0.00000292,-0.0
 0002455,-0.00000618,0.00000629,0.00000999,0.00000428,0.00000329,-0.000
 01110,0.00002981,-0.00000914,-0.00000912,0.00000356,0.,-0.00000007,0.0
 0001073,-0.00000591,-0.00000087,0.00000619,0.00000078,-0.00015249,0.00
 016688,-0.00033302,-0.00003049,-0.00006640,0.00010628,0.00006973,0.000
 00913,0.00008471,0.00000528,-0.00002841,0.00000265,-0.00000228,0.00000
 389,-0.00001238,0.00001419,-0.00003216,-0.00001161,0.00003051,-0.00001
 155,-0.00002042,-0.00000600,0.00000484,0.00000306,-0.00001283,-0.00001
 490,0.00007396,0.00002304,0.00000344,-0.00002123,-0.00006641,0.0000339
 7,-0.00002531,0.00000920,-0.00000271,0.00001738,0.00000779,0.00002330,
 -0.00002651,-0.00000609,0.00000233,0.00000107,0.00001028,-0.00000810,-
 0.00000579,0.00001404,-0.00000515,0.00001681,-0.00001173,-0.00001101,-
 0.00000551,0.00007640,-0.00017937,0.00018919,0.00001259,-0.00006067,-0
 .00004876,-0.00011448,0.00011081,-0.00043178,-0.00003931,-0.00033031,0
 .00005902,0.00094455,-0.00237803,-0.00024598,-0.00112111,-0.00054107,0
 .00010698,-0.01893205,-0.00631608,0.00445628,0.00072694,0.00110188,0.0
 0010809,-0.00095269,0.00274577,-0.00002525,0.00032134,0.00036847,0.000
 12746,-0.00002391,0.00002709,-0.00000931,-0.00009835,0.00031145,-0.000
 08774,0.00005965,0.00000249,-0.00000077,-0.00007986,0.00001749,-0.0000
 1438,-0.00008626,0.00001608,-0.00002278,-0.27909180,-0.06608338,0.0584
 9653,-0.00655456,-0.00121877,0.00199076,0.00085193,0.00017810,0.000006
 97,0.30382792,-0.00006589,0.00002865,0.00000604,-0.00002239,-0.0000065
 5,0.00001798,0.00009411,0.00001362,0.00002712,-0.00003719,-0.00000937,
 -0.00000036,0.00002407,0.00000050,0.00000764,-0.00001577,0.00001888,0.
 00000410,-0.00000316,0.00001264,0.00000009,0.00003020,-0.00003441,-0.0
 0008331,0.00000140,0.00000652,0.00000560,0.00000072,0.00000203,-0.0000
 0101,0.00000700,0.00000737,-0.00000081,-0.00000654,0.00000413,-0.00003
 184,0.00000166,-0.00001257,0.00000202,0.00000753,0.00001444,0.00000250
 ,-0.00000084,0.00000853,0.00000082,0.00000170,-0.00000272,0.00000098,0
 .00000947,-0.00000668,0.00000182,-0.00000586,-0.00000621,0.00000035,-0
 .00000487,-0.00000627,0.00000461,-0.00000002,-0.00000042,0.00000034,0.
 00000040,-0.00000019,-0.00000037,-0.00000160,0.00000059,-0.00000048,0.
 00007687,-0.00015871,0.00007508,-0.00002953,0.00004527,-0.00001708,-0.
 00001457,0.00005064,-0.00000734,-0.00000457,-0.00002143,-0.00001082,0.
 00002537,0.00003817,0.00001390,0.00002663,-0.00005586,0.00004920,0.000
 00173,0.00000367,-0.00002593,0.00000134,-0.00000297,0.00000413,-0.0000
 4894,-0.00006028,0.00011456,0.00001255,-0.00001810,-0.00001521,-0.0001
 2214,0.00006970,-0.00002853,0.00001119,0.00000669,0.00001869,0.0000482
 0,0.00007692,-0.00004557,-0.00001039,0.00000826,-0.00001311,0.00001552
 ,-0.00001377,-0.00000777,0.00002056,-0.00000262,0.00003143,-0.00003092
 ,-0.00000357,-0.00001176,-0.00003938,0.00008036,-0.00001601,-0.0000025
 6,0.00002224,0.00002671,-0.00000526,-0.00006329,0.00000056,0.00004413,
 0.00018049,-0.00005286,0.00145366,0.00088247,-0.00013272,0.00118968,0.
 00080800,-0.00004975,0.02559953,0.00708067,-0.00677530,-0.00053287,-0.
 00072483,0.00016638,0.00184212,-0.00559703,0.00145735,-0.00021144,0.00
 029417,-0.00015775,-0.00004377,0.00005069,0.00001136,0.00013878,-0.000
 30394,0.00008302,0.00000529,-0.00000396,-0.00000237,0.00006718,-0.0000
 0103,0.00000412,0.00008730,0.00000865,0.00001182,-0.06855734,-0.069031
 59,0.01638362,-0.02194822,-0.00515319,0.00869524,-0.00848927,-0.003359
 55,0.00051817,0.07097809,0.07359379,0.00003519,-0.00008527,0.00007180,
 -0.00017225,-0.00000880,0.00005379,0.00014698,0.00000628,0.00005575,-0
 .00003779,0.00006475,-0.00001735,0.00000857,0.00004656,0.00000202,-0.0
 0009499,0.00001711,-0.00000753,-0.00008598,0.00001740,-0.00011230,0.00
 025652,0.00002900,-0.00014400,0.00000901,0.00002036,0.00000793,-0.0000
 0520,0.00001342,-0.00000165,0.00000866,0.00000321,-0.00000069,-0.00003
 712,-0.00001595,-0.00004644,0.00000457,-0.00000423,-0.00000356,0.00001
 338,-0.00000929,-0.00000807,-0.00000329,0.00000109,0.00001075,-0.00000
 268,0.00000258,-0.00000222,0.00000071,-0.00000179,0.00000006,-0.000001
 62,-0.00000338,0.00000933,0.00000566,-0.00000979,0.00000050,0.00000086
 ,0.00000013,-0.00000019,0.00000043,-0.00000117,0.00000151,-0.00000078,
 -0.00000039,0.00000024,-0.00002199,0.00024156,-0.00006897,0.00003148,-
 0.00005254,0.00000851,-0.00002833,-0.00009429,0.00000493,0.00010043,0.
 00010958,0.00008974,-0.00009652,-0.00005403,-0.00000263,-0.00002008,0.
 00011149,-0.00020266,-0.00003344,-0.00005469,0.00005248,0.00000415,0.0
 0000363,-0.00002217,0.00005259,-0.00006170,-0.00029775,-0.00004917,0.0
 0000458,0.00000720,0.00025823,-0.00002961,0.00007099,-0.00001569,-0.00
 000005,-0.00003852,-0.00006445,-0.00008439,0.00003377,0.00001960,-0.00
 001561,0.00001147,-0.00002420,0.00001576,0.00000616,-0.00002640,0.0000
 1614,-0.00003211,0.00001627,0.00001114,0.00001313,-0.00003360,-0.00001
 175,0.00004837,-0.00002247,-0.00000076,-0.00001923,0.00013607,-0.00004
 486,0.00003970,-0.00000910,-0.00004488,-0.00004225,-0.00033122,-0.0002
 9978,-0.00003025,-0.00022276,-0.00002662,0.00015737,-0.00594384,-0.000
 71452,-0.00011956,0.00010594,-0.00005358,0.00020858,-0.00034560,0.0011
 9534,0.00096134,-0.00017215,-0.00001315,-0.00019023,0.00000669,0.00000
 277,-0.00000018,-0.00002063,0.00002414,-0.00009436,0.00000979,-0.00000
 037,0.00000254,-0.00002720,0.00000009,0.00000044,-0.00000608,0.0000073
 8,0.00000465,0.05997764,0.01575737,-0.06387859,-0.01800237,-0.00325907
 ,0.00511943,0.02931413,0.00757205,-0.00463887,-0.06454286,-0.02018261,
 0.06248720,-0.00012304,-0.00007691,-0.00003396,0.00019012,-0.00001689,
 0.00012127,-0.00032842,0.00001357,0.00008776,0.00000621,0.00006816,0.0
 0000205,0.00003086,-0.00003733,0.00001836,0.00004072,0.00009959,0.0000
 2325,0.00000641,-0.00000317,-0.00000189,0.00000054,-0.00001767,-0.0000
 0815,-0.00000051,-0.00000647,-0.00001129,-0.00000062,-0.00000272,-0.00
 000508,-0.00000029,-0.00000004,-0.00000872,-0.00082728,-0.00008618,-0.
 00156073,-0.00019902,-0.00030079,-0.00015054,-0.00018353,-0.00037710,-
 0.00035751,-0.00027612,-0.00047461,-0.00032654,0.00000454,0.00000566,0
 .00018346,-0.00032604,0.00039193,0.00061984,-0.00007527,-0.00000053,0.
 00002240,0.00062600,0.00031548,-0.00046022,-0.00000185,0.00004444,0.00
 009371,-0.00007377,-0.00009369,-0.00003637,-0.00000132,-0.00004814,-0.
 00002413,0.00019765,0.00006451,-0.00005767,-0.00004347,-0.00000179,-0.
 00004940,-0.00005607,-0.00007827,-0.00002326,-0.00002299,-0.00000748,0
 .00000979,-0.00001040,0.00000206,-0.00000137,0.00004377,-0.00001106,0.
 00001503,-0.00000345,-0.00000720,-0.00000485,-0.00000268,0.00000150,-0
 .00000119,-0.00001711,0.00000381,-0.00001023,-0.00000947,-0.00000082,0
 .00003960,0.00001236,-0.00000415,0.00000833,-0.00000225,0.00000062,-0.
 00000209,0.00000214,-0.00000665,0.00000313,0.00000037,0.,0.00000025,0.
 00000024,0.00000200,-0.00000079,-0.00000293,0.00000017,-0.00000067,0.0
 0000046,-0.00000136,0.00000016,0.00029013,0.00031460,-0.00001863,0.000
 02047,0.00038284,-0.00041001,0.00051101,-0.00080956,0.00076951,-0.1337
 8413,0.04993861,-0.01941800,-0.00324835,-0.00282371,-0.00065121,0.0123
 2468,0.00224020,-0.00140203,-0.00050242,-0.00016807,0.00003117,-0.0006
 1576,0.00083732,0.00002255,0.00066473,-0.00490268,0.00010662,-0.023384
 50,0.02323819,-0.00883641,0.00054172,0.00124995,0.00023676,-0.00296642
 ,-0.00229154,0.00106124,-0.00049466,-0.00005095,0.00004187,0.00062138,
 -0.00109852,0.00100745,0.00041172,-0.00195232,-0.00020673,0.00006777,0
 .00007116,0.00020898,-0.00000044,0.00003865,-0.00002612,0.00004151,-0.
 00000170,-0.00002516,0.00003766,-0.00005486,-0.00000155,0.53398882,0.0
 0004214,-0.00001203,-0.00000672,-0.00002050,-0.00000631,-0.00004423,-0
 .00001596,-0.00006060,0.00003384,0.00000552,0.00003861,0.00001579,-0.0
 0003640,0.00000149,-0.00000414,-0.00001173,-0.00002954,-0.00000448,-0.
 00000032,0.00000100,0.00000482,0.00001163,-0.00001774,0.00003974,-0.00
 002056,-0.00000823,-0.00002452,-0.00000766,-0.00000390,-0.00000392,-0.
 00000336,-0.00000390,0.00000048,-0.00032398,-0.00012330,-0.00068139,-0
 .00019127,-0.00093326,-0.00067047,-0.00024724,0.00027608,-0.00011654,-
 0.00043284,0.00042802,-0.00026934,-0.00000632,0.00004724,0.00005233,0.
 00056717,-0.00013239,0.00019836,-0.00021220,-0.00000252,-0.00006211,-0
 .00007039,-0.00019242,0.00005706,0.00000485,-0.00001396,0.00002629,-0.
 00002639,-0.00008864,-0.00002194,-0.00001826,0.00001564,0.00002062,-0.
 00021112,-0.00030458,0.00044401,0.00013903,0.00006232,-0.00005544,-0.0
 0002159,-0.00000056,-0.00017158,0.00002671,-0.00000288,-0.00003397,0.0
 0001949,0.00001671,0.00001063,-0.00004156,0.00001805,-0.00001860,0.000
 00583,0.00001199,0.00000723,0.00000602,-0.00000344,0.00000340,0.000007
 48,-0.00001210,0.00000191,-0.00000536,-0.00000718,-0.00004012,-0.00000
 649,-0.00000567,-0.00000343,-0.00000172,0.00000277,0.00000108,-0.00000
 656,0.00001396,-0.00000753,0.00000429,0.00000208,-0.00000062,-0.000001
 06,0.00000287,-0.00000181,0.00000016,-0.00000036,0.00000138,-0.0000027
 3,-0.00000072,0.00000133,0.00005470,0.00008089,-0.00061162,-0.00016351
 ,-0.00015008,0.00038910,0.00022599,0.00036157,0.00034596,0.05777680,-0
 .15227504,0.02653104,-0.00271048,0.00013557,0.00108990,0.01878064,-0.0
 2834769,0.01073648,0.00013594,-0.00065021,-0.00034973,-0.00055215,0.00
 067880,0.00033416,-0.00491506,-0.00020044,0.00301160,0.00143510,0.0065
 3095,0.00000530,-0.00207720,0.00015177,-0.00092599,0.00273385,-0.00214
 249,-0.00019847,0.00086587,-0.00006618,-0.00024243,-0.00052002,0.00042
 050,0.00013234,0.00019133,0.00053456,-0.00036717,0.00008734,0.00014498
 ,-0.00025627,-0.00006565,0.00001158,0.00004035,-0.00007120,0.00004643,
 -0.00000538,0.00005484,-0.00001445,0.00001114,0.05525863,0.54634960,0.
 00005201,0.00004317,0.00001800,-0.00000632,-0.00004807,-0.00006861,-0.
 00018113,0.00013693,0.00011475,0.00008469,-0.00001615,-0.00000995,-0.0
 0005746,0.00003545,-0.00000232,0.00001943,-0.00006061,0.00000344,0.000
 00261,-0.00000319,0.00000514,0.00000381,0.00000440,0.00003361,0.000031
 52,0.00002220,-0.00000322,0.00000538,0.00000233,0.00000556,0.00000093,
 -0.00000017,-0.00000230,-0.00105238,-0.00103528,-0.00152729,-0.0007483
 1,-0.00092122,-0.00092286,-0.00021089,-0.00081408,-0.00126681,0.000036
 49,0.00076406,-0.00007731,0.00005750,0.00006203,-0.00001379,-0.0005791
 5,0.00026502,-0.00035469,0.00011865,0.00007740,0.00010269,-0.00024067,
 0.00011087,0.00051272,0.00001664,-0.00006829,-0.00011865,0.00002574,0.
 00001024,0.00000303,0.00002051,-0.00003293,-0.00001200,-0.00007664,0.0
 0006826,-0.00015721,0.00008041,-0.00003279,0.00007580,0.00004501,0.000
 01723,0.00006887,0.00001224,0.00000221,0.00000969,-0.00002361,-0.00001
 254,-0.00001150,0.00001956,-0.00001118,0.00001938,-0.00000126,-0.00002
 039,-0.00000752,-0.00000532,0.00000360,-0.00000238,0.00000032,0.000009
 87,-0.00001138,-0.00001888,0.00002680,0.00001541,0.00001963,0.00000363
 ,0.00000544,0.00000188,-0.00000350,0.00000017,0.00000072,-0.00002049,0
 .00001187,-0.00000254,-0.00000128,0.00000289,0.00000148,-0.00000228,0.
 00000024,0.00000053,-0.00000035,-0.00000039,0.00000173,-0.00000313,-0.
 00000148,0.00025410,-0.00007670,0.00001979,-0.00037063,0.00023971,-0.0
 0028657,0.00066283,-0.00050901,0.00047997,-0.02309134,0.02687240,-0.08
 018104,-0.00036194,-0.00025375,0.00352946,-0.00426805,0.01021290,0.003
 60613,0.00039611,-0.00041795,-0.00105633,0.00006414,0.00035633,0.00074
 701,0.00034139,0.00134125,0.00904938,-0.00284936,0.00400413,0.00352386
 ,0.00033885,-0.00119104,-0.00160670,-0.00049803,-0.00111288,-0.0054739
 6,-0.00015499,-0.00017863,-0.00043611,-0.00134026,-0.00151778,0.000521
 84,0.00124053,0.00144504,0.00006948,-0.00010378,-0.00011346,-0.0004472
 6,0.00008241,-0.00003568,0.00002261,0.00000363,0.00005463,0.00002417,0
 .00001528,-0.00000595,0.00001943,-0.01266122,0.00649361,0.53457068,-0.
 00000376,0.00000840,0.00000323,-0.00000186,0.00002537,0.00000412,0.000
 01671,0.00002904,0.00002017,-0.00000124,-0.00003761,0.00000063,0.00000
 667,-0.00000336,0.00000080,0.00000394,0.00000398,0.00000103,0.00000119
 ,-0.00000113,-0.00000063,-0.00000090,0.00000076,-0.00000177,0.00001043
 ,0.00000538,0.00000483,0.00000304,0.00000171,0.00000010,0.00000086,0.0
 0000059,0.00000064,-0.00007518,-0.00011593,-0.00061776,-0.00030840,0.0
 0013070,0.00011069,-0.00032346,-0.00058193,-0.00078459,-0.00006950,-0.
 00012545,0.00022533,-0.00002436,0.00001297,-0.00005848,-0.00003584,-0.
 00016706,-0.00039849,-0.00010546,-0.00004020,-0.00004835,-0.00022188,0
 .00008450,0.00001987,0.00001134,-0.00001408,-0.00001266,0.00004173,0.0
 0003350,0.00002395,-0.00001317,0.00003285,0.00002368,-0.00009084,0.000
 00977,-0.00004311,0.00002925,-0.00000920,0.00003630,0.00002354,0.00001
 990,0.00001712,0.00000988,0.00000041,0.00000094,-0.00000413,-0.0000058
 5,-0.00000124,0.00000510,0.00000162,0.00000179,-0.00000037,-0.00000219
 ,-0.00000011,-0.00000061,0.00000103,-0.00000179,0.00000242,0.00000001,
 0.00000008,-0.00000833,0.00000106,0.00000835,0.00000040,0.00000226,-0.
 00000021,0.00000125,-0.00000085,0.00000017,-0.00000092,-0.00000287,0.0
 0000217,-0.00000087,-0.00000052,0.00000076,0.00000016,-0.00000097,-0.0
 0000008,0.00000097,0.00000008,0.,0.00000024,-0.00000085,-0.00000028,-0
 .00006246,-0.00006656,0.00003856,-0.00004457,0.00003374,0.00006854,0.0
 0000560,-0.00010978,-0.00018955,0.01134062,0.02018715,-0.00463825,0.00
 022338,0.00003272,-0.00003956,-0.00389615,0.00266013,-0.00138523,-0.00
 002150,-0.00006948,0.00008521,0.00003864,-0.00007505,-0.00001995,0.000
 97443,0.00039064,-0.00030303,0.00077797,0.00172308,-0.00046456,-0.0007
 7719,0.00004273,0.00009377,-0.00056996,-0.00054939,0.00024623,0.000203
 80,-0.00002065,-0.00003027,0.00009213,0.00013607,0.00028359,0.00026770
 ,-0.00003764,-0.00036184,-0.00000528,-0.00005170,-0.00000921,0.0000195
 2,0.00000127,-0.00000171,-0.00000810,0.00000066,0.00000447,-0.00001214
 ,0.00000724,-0.00000269,-0.11409200,-0.11523356,0.02942530,0.12479037,
 0.00001014,0.00002492,-0.00000528,-0.00000088,-0.00001264,-0.00000942,
 -0.00002464,0.00003774,0.00001086,0.00001448,-0.00001241,-0.00000200,0
 .00000015,-0.00000316,-0.00000473,0.00001836,-0.00000592,0.00000047,-0
 .00000072,-0.00000307,0.00000310,-0.00000180,0.00000908,0.00001518,0.0
 0001420,0.00000118,0.00001161,0.00000367,0.00000394,0.00000386,0.00000
 174,0.00000073,0.00000396,-0.00008748,-0.00023585,-0.00018219,-0.00027
 911,0.00009862,0.00018869,-0.00063319,-0.00060172,-0.00111190,0.000088
 52,-0.00012081,0.00009413,0.00002330,-0.00000644,-0.00000810,-0.000552
 53,-0.00020222,-0.00034070,0.00013451,0.00005112,0.00006588,0.00017827
 ,0.00012326,0.00004017,-0.00000358,-0.00000211,0.00001003,-0.00000815,
 -0.00000216,-0.00000077,0.00000527,0.00000294,-0.00000499,-0.00001340,
 0.00003692,-0.00016994,-0.00000515,-0.00000022,0.00003824,0.00001574,0
 .00001355,0.00004443,0.00000112,-0.00000697,0.00000573,0.00000192,-0.0
 0000172,0.00000040,-0.00001761,0.00000228,-0.00000523,0.00000252,-0.00
 000072,0.00000037,-0.00000021,0.00000063,-0.00000090,0.00000959,-0.000
 00625,0.00000682,0.00000419,0.00000301,-0.00001829,-0.00000754,0.00000
 911,-0.00000370,0.00000311,-0.00000033,0.00000118,-0.00000183,0.000007
 30,-0.00000708,-0.00000182,-0.00000034,0.00000129,0.00000070,-0.000002
 96,0.00000051,0.00000305,-0.00000031,0.00000095,-0.00000024,-0.0000004
 8,-0.00000086,0.00008938,0.00009316,0.00009872,-0.00005165,-0.00007470
 ,-0.00023628,0.00011406,-0.00009567,0.00004820,-0.01232182,-0.01945215
 ,0.00443600,0.00030048,-0.00021643,-0.00048827,0.00421198,-0.00212740,
 0.00110573,0.00029536,0.00024692,-0.00000373,-0.00000354,0.00001260,0.
 00002718,-0.00188846,0.00001963,0.00003064,-0.00206949,0.00069189,0.00
 006847,0.00119331,0.00063299,0.00004838,0.00062518,0.00004922,-0.00008
 118,-0.00013694,0.00008415,0.00004647,0.00009466,0.00012759,-0.0000159
 0,-0.00003989,0.00010983,0.00005900,0.00009118,0.00009507,0.00002095,-
 0.00002844,0.00002528,0.00000899,-0.00001057,-0.00000319,-0.00000451,0
 .00002788,-0.00001430,0.00000551,-0.11128903,-0.24349723,0.05133702,0.
 12103258,0.26439520,0.00000739,-0.00003408,0.00000738,0.00001403,0.000
 01704,0.00000870,0.00004098,-0.00013973,-0.00002196,-0.00002251,0.0000
 7803,0.00001415,0.00000154,-0.00002940,-0.00000821,-0.00001526,0.00000
 251,-0.00000701,0.00000412,-0.00000143,0.00000141,0.00000074,-0.000010
 37,-0.00001568,-0.00003642,-0.00004141,-0.00002118,-0.00000505,0.00000
 083,0.00000036,0.00000510,-0.00000435,0.00000280,-0.00001202,0.0003473
 5,-0.00064525,0.00008218,0.00006171,-0.00007530,-0.00075565,-0.0003049
 7,-0.00017138,0.00000989,-0.00010492,-0.00006818,-0.00002411,-0.000004
 72,0.00010274,-0.00000384,-0.00045860,0.00018596,-0.00001401,-0.000033
 75,-0.00005628,0.00033081,-0.00010273,-0.00001249,-0.00001547,0.000030
 49,0.00006783,0.00001828,0.00004854,-0.00000206,-0.00003286,0.00003197
 ,0.00001487,0.00006264,0.00002911,0.00008828,0.00000588,-0.00001720,-0
 .00004489,-0.00002715,-0.00006248,-0.00003616,-0.00000167,-0.00000917,
 0.00000369,-0.00000102,0.00000050,0.00000115,0.00000529,0.00000043,0.0
 0000766,-0.00000197,-0.00000197,-0.00000220,-0.00000045,0.00000093,-0.
 00000113,-0.00000104,0.00000074,0.00000112,0.00000462,-0.00000380,-0.0
 0000827,-0.00000217,0.00000258,-0.00000007,0.00000038,0.00000045,-0.00
 000022,0.00000054,-0.00000105,0.00000045,-0.00000104,-0.00000036,0.000
 00026,0.00000037,-0.00000095,0.00000054,0.00000031,0.00000013,0.,0.000
 00035,0.00000003,-0.00000067,0.00002530,-0.00008992,-0.00010591,0.0001
 2798,0.00004318,0.00020478,-0.00025976,0.00057504,0.00026397,0.0052728
 9,0.00664870,-0.00355449,-0.00015759,0.00017100,-0.00006755,-0.0015985
 2,0.00116075,0.00057526,-0.00037855,-0.00013960,-0.00005032,0.00001600
 ,-0.00000089,-0.00001725,0.00090250,0.00033512,0.00070265,0.00053410,-
 0.00026196,-0.00008513,-0.00040597,0.00004231,0.00023834,-0.00019933,-
 0.00022870,-0.00050233,0.00004128,0.00008421,0.00028270,0.00018170,0.0
 0017973,0.00021527,-0.00030456,-0.00014814,0.00012959,-0.00003513,-0.0
 0003707,0.00001342,0.00000509,-0.00000516,-0.00000309,0.00000446,-0.00
 000480,-0.00000040,-0.00000006,0.00000359,-0.00000136,0.02725639,0.049
 48128,-0.06057154,-0.02942514,-0.05567646,0.06084730,0.00000424,-0.000
 05748,0.00000198,0.00002498,0.00002977,0.00000555,0.00007408,-0.000149
 58,-0.00003033,-0.00002831,0.00007691,0.00000409,0.00000248,-0.0000064
 5,0.00000218,-0.00003005,0.00000694,-0.00001012,0.00000234,0.00000225,
 0.00000370,0.00000101,-0.00001221,-0.00000045,-0.00002695,-0.00003503,
 -0.00001353,-0.00000636,-0.00000397,-0.00000013,0.00000133,-0.00000368
 ,-0.00000046,-0.00041977,0.00004244,-0.00000614,0.00024309,0.00028348,
 -0.00017155,-0.00014498,-0.00020225,0.00009820,0.00050272,-0.00005994,
 0.00025388,-0.00004132,0.00000365,-0.00020532,-0.00009080,0.00001526,-
 0.00013104,0.00010592,0.00005023,-0.00002660,0.00005033,-0.00022196,0.
 00016536,-0.00001248,0.00000825,0.00002256,0.00002759,0.00004409,0.000
 00621,-0.00000084,0.00004110,-0.00001277,-0.00008611,-0.00004809,0.000
 12172,0.00016957,-0.00000430,-0.00003029,0.00000661,-0.00005460,-0.000
 06922,0.00001196,-0.00000686,-0.00000072,0.00000216,-0.00000431,0.0000
 0157,-0.00000566,0.00000774,-0.00000198,0.00000614,0.00000251,-0.00000
 141,-0.00000170,0.00000029,0.00000425,0.00000678,-0.00000523,0.0000019
 4,0.00000206,-0.00000471,-0.00001177,-0.00000348,-0.00000239,-0.000000
 57,0.00000087,-0.00000077,0.00000108,-0.00000229,0.00000248,-0.0000016
 9,0.00000014,-0.00000008,0.00000140,0.00000086,0.,-0.00000093,0.000000
 71,-0.00000079,0.00000079,-0.00000038,-0.00000222,0.00000007,0.0000575
 7,0.00001900,-0.00044575,-0.00017403,0.00046590,0.00012404,-0.00049900
 ,0.00052292,0.00068902,-0.01561958,0.00629916,0.01186657,-0.00073415,0
 .00036990,-0.00102840,-0.00102396,-0.00297353,-0.00026236,-0.00038722,
 -0.00019502,0.00018431,-0.00016979,0.00012874,-0.00008404,-0.00015654,
 0.00008002,-0.00088612,-0.00047849,0.00233228,-0.00035646,0.00024697,0
 .00030373,0.00030812,0.00150419,-0.00053019,0.00054059,0.00008524,-0.0
 0005906,-0.00013664,0.00012211,0.00035213,-0.00010787,-0.00002752,0.00
 038688,0.00022186,0.00003835,0.00009499,0.00006945,-0.00004512,0.00003
 021,-0.00000151,-0.00003076,0.00000087,-0.00000776,0.00000659,-0.00000
 498,-0.00000558,-0.15201873,0.03121748,0.12796963,-0.00985967,0.003536
 25,0.01162757,0.16686232,0.00004611,0.00002808,0.00000737,-0.00003716,
 -0.00002908,-0.00001960,0.00000345,-0.00004897,-0.00002504,0.00000476,
 0.00001846,0.00001658,-0.00001655,-0.00000241,-0.00001310,-0.00000256,
 -0.00003591,-0.00000782,0.00000065,-0.00000233,0.00000088,0.00000101,0
 .00001012,0.00000045,-0.00001201,-0.00001111,-0.00000808,-0.00000006,0
 .00000358,0.00000260,0.00000370,-0.00000105,0.00000594,-0.00012338,-0.
 00003470,0.00010030,-0.00028085,0.00000561,-0.00065269,0.00007201,-0.0
 0006282,-0.00001344,0.00020611,-0.00017691,-0.00032646,0.00003452,0.00
 000860,0.00016649,-0.00012234,-0.00006881,0.00000202,0.00008375,0.0000
 0799,0.00002812,-0.00000591,-0.00019418,0.00020754,-0.00000424,0.00001
 015,-0.00001653,0.00003036,0.00005160,0.00000704,-0.00000104,0.0000042
 9,-0.00000504,0.00016409,0.00014245,-0.00009123,-0.00014487,-0.0000321
 2,-0.00002859,-0.00002519,-0.00004267,0.00004359,-0.00001711,-0.000009
 49,0.00000578,0.00000148,0.00000453,0.00000013,-0.00000732,-0.00000421
 ,0.00000575,-0.00000423,-0.00000280,-0.00000047,0.00000029,0.00000068,
 -0.00000311,-0.00000110,0.00000211,0.00000475,0.00001877,0.00000125,-0
 .00002100,-0.00000534,0.00000843,-0.00000227,0.00000111,0.00000098,-0.
 00000042,0.00000278,0.00000382,-0.00000497,-0.00000190,-0.00000022,-0.
 00000072,0.00000025,-0.00000255,0.00000210,0.00000090,0.00000030,-0.00
 000021,0.00000077,0.00000236,-0.00000117,0.00004573,-0.00006463,0.0002
 4613,0.00028315,-0.00035889,-0.00000931,-0.00001148,0.00027197,-0.0002
 1655,0.01478604,-0.00520221,-0.01727581,0.00050050,-0.00030156,0.00030
 017,0.00126659,-0.00045793,0.00160529,0.00033866,0.00025818,-0.0002393
 7,0.00012073,-0.00006013,0.00012769,-0.00087425,0.00096291,0.00124986,
 -0.00005005,-0.00170229,0.00030682,0.00011100,0.00019329,-0.00013777,0
 .00113304,-0.00058526,-0.00160265,-0.00001845,0.00018651,0.00028335,-0
 .00041698,0.00010385,-0.00001376,-0.00107681,-0.00058543,0.00076389,-0
 .00002479,-0.00002683,0.00002288,0.00001161,-0.00000505,0.00000042,0.0
 0003832,-0.00001990,0.00000327,0.00000952,0.00000513,0.00000404,0.0338
 0445,-0.05631919,-0.03767856,-0.01742456,0.00668600,0.02130572,-0.0382
 9433,0.05997575,-0.00004121,-0.00003163,-0.00001338,0.00005190,-0.0000
 1477,0.00004781,-0.00012800,0.00001562,0.00004324,-0.00000438,0.000031
 53,0.00000071,0.00001356,-0.00000410,0.00000875,-0.00000329,0.00003245
 ,0.00000548,0.00000221,-0.00000046,-0.00000417,-0.00000734,-0.00000334
 ,-0.00001938,-0.00000585,-0.00000490,-0.00001054,0.00000081,-0.0000002
 9,-0.00000118,0.00000273,0.00000014,-0.00000319,-0.00088904,0.00022861
 ,-0.00043283,-0.00029316,-0.00030162,-0.00087266,0.00011202,0.00004201
 ,0.00008262,-0.00006254,-0.00083309,-0.00028509,-0.00006146,0.00002121
 ,-0.00014122,0.00002136,0.00016967,0.00001447,-0.00001896,0.00000509,-
 0.00003205,0.00021909,0.00015264,-0.00032890,0.00000187,0.00003048,0.0
 0008179,0.00000452,-0.00000052,0.00000104,0.00000081,0.00005064,-0.000
 00297,0.00007343,0.00013823,-0.00012900,0.00001037,-0.00005230,0.00003
 018,0.00001412,-0.00003694,0.00006119,-0.00001308,-0.00000375,0.000015
 74,-0.00001177,-0.00001131,-0.00000708,0.00003157,-0.00001007,0.000012
 57,-0.00000301,-0.00000853,-0.00000380,-0.00000425,0.00000286,-0.00000
 204,-0.00000531,0.00000280,-0.00000037,0.00000333,0.00000506,0.0000180
 4,0.00000244,0.00000362,0.00000205,0.00000160,-0.00000166,-0.00000097,
 0.00000511,-0.00000574,0.00000047,-0.00000271,-0.00000140,0.00000005,0
 .00000093,-0.00000214,0.00000152,-0.00000016,0.00000005,-0.00000086,0.
 00000189,0.00000050,-0.00000099,0.00009400,-0.00006797,0.00013161,-0.0
 0005626,0.00034510,-0.00004234,0.00008693,-0.00049125,-0.00004872,-0.0
 0679470,0.00067976,0.00995075,-0.00037716,-0.00001298,-0.00015181,0.00
 050901,0.00116272,0.00037407,-0.00026821,-0.00002370,0.00004676,-0.000
 05780,0.00000244,-0.00005876,0.00090810,-0.00051644,-0.00063860,-0.001
 03897,0.00038087,-0.00091722,-0.00007652,0.00000530,0.00002543,-0.0006
 0659,0.00095011,0.00033201,-0.00024047,0.00009877,0.00011500,0.0003861
 7,-0.00015431,-0.00054546,0.00002859,-0.00051645,0.00023863,-0.0000453
 4,-0.00007073,0.00007219,0.00003249,-0.00000936,-0.00001682,0.00003343
 ,-0.00001531,0.00000188,-0.00000754,0.00000176,-0.00000681,0.12605039,
 -0.03520051,-0.18859882,0.00290533,-0.00137056,-0.00507776,-0.13715827
 ,0.03926738,0.20625170,0.00002481,-0.00000970,0.00000220,-0.00001515,0
 .00000689,-0.00002555,0.00003598,0.00000012,0.00002846,0.00000058,0.00
 000950,-0.00000179,-0.00000818,0.00001320,-0.00000148,-0.00001316,-0.0
 0001488,-0.00000351,-0.00000062,0.00000346,0.00000096,0.00000732,-0.00
 000874,0.00002000,0.00000183,-0.00000401,0.00000529,-0.00000342,-0.000
 00490,-0.00000199,-0.00000507,-0.00000134,-0.00000088,-0.00005832,-0.0
 0006007,0.00023460,0.00009574,0.00017766,0.00014264,-0.00003361,-0.000
 15563,-0.00019719,0.00013839,-0.00000411,0.00011760,-0.00001164,-0.000
 00121,-0.00006793,-0.00009366,0.00008660,-0.00012430,0.00004853,0.0000
 4051,0.00001098,-0.00001249,-0.00005296,0.00006807,0.00000021,-0.00001
 221,-0.00002171,0.00000526,-0.00000299,0.00000679,0.00000913,0.0000004
 5,-0.00000837,-0.00005166,-0.00012772,0.00022297,0.00005818,0.00002736
 ,-0.00003997,-0.00001379,-0.00000158,-0.00007967,0.00000455,0.00000857
 ,-0.00001421,0.00000533,0.00000700,0.00000280,-0.00000134,0.00000248,-
 0.00000607,0.00000125,0.00000544,0.00000131,0.00000140,-0.00000209,0.0
 0000371,-0.00000534,0.00000007,-0.00000759,-0.00000846,-0.00000235,0.0
 0000314,0.00000696,-0.00001206,0.00000329,-0.00000326,0.00000071,-0.00
 000031,-0.00000123,-0.00000192,0.00000394,0.00000340,0.00000096,-0.000
 00181,-0.00000107,0.00000400,-0.00000167,-0.00000259,0.00000003,-0.000
 00011,-0.00000107,-0.00000023,0.00000184,-0.00003454,0.00002443,-0.000
 28645,-0.00008408,0.00010214,0.00014588,0.00006072,0.00015752,0.000121
 38,-0.01424478,-0.00280512,-0.01658532,-0.00073863,-0.00014717,0.00032
 337,-0.00087111,-0.00189099,0.00116869,0.00003177,-0.00015714,-0.00009
 990,-0.00018566,0.00023453,0.00014171,-0.00032223,0.00012028,0.0007541
 0,-0.00070116,0.00298684,-0.00068306,0.00008342,-0.00016178,-0.0003268
 7,0.00133054,-0.00026137,0.00017731,0.00003762,-0.00000130,0.00006139,
 0.00009149,0.00022243,-0.00042583,0.00012342,0.00023161,0.00009614,0.0
 0001150,0.00003001,-0.00007564,-0.00000780,0.00002611,0.00000160,-0.00
 001932,0.00002243,0.00000539,-0.00000008,-0.00000439,0.00000053,-0.117
 55721,-0.04280361,-0.11266265,-0.00812391,-0.00323774,-0.01252899,0.01
 198073,0.00588852,0.01700569,0.12892948,0.00000349,0.00003297,-0.00000
 821,-0.00002878,-0.00004267,-0.00000200,-0.00003052,0.00007989,0.00000
 126,0.00001595,-0.00003489,-0.00001289,-0.00000975,0.00002461,0.000009
 53,0.00000742,-0.00001193,0.00000051,-0.00000397,0.00000091,-0.0000019
 8,-0.00000570,0.00001433,0.00000228,0.00002852,0.00002891,0.00001307,0
 .00000270,0.00000044,0.00000099,-0.00000171,0.00000357,-0.00000085,-0.
 00013919,-0.00029515,-0.00014152,-0.00021679,0.00000181,0.00006277,0.0
 0002784,-0.00007389,-0.00041770,-0.00006481,0.00007302,0.00003465,0.00
 003319,-0.00001330,0.00000331,-0.00013607,0.00016218,-0.00013805,0.000
 04995,0.00001933,0.00006235,-0.00011212,0.00015609,0.00001469,0.000004
 47,-0.00000235,-0.00002264,-0.00000531,-0.00000457,0.00001067,0.000015
 89,-0.00002958,-0.00000933,0.00006434,0.00005965,-0.00014841,-0.000093
 73,-0.00000493,0.00003213,0.00001920,0.00004645,0.00008002,-0.00000970
 ,0.00000305,0.00000761,0.00000060,-0.00000189,-0.00000205,-0.00000604,
 -0.00000232,-0.00000459,0.00000074,0.00000098,0.00000119,-0.00000004,-
 0.00000040,0.00000031,0.00000192,0.00000149,0.00000248,0.00000961,0.00
 000187,-0.00000184,-0.00000281,0.00000214,-0.00000171,0.00000029,-0.00
 000036,0.00000029,0.00000174,0.00000268,-0.00000276,-0.00000045,0.0000
 0010,0.00000006,0.00000019,-0.00000068,0.00000071,0.00000016,-0.000000
 19,-0.00000015,0.00000038,0.00000098,-0.00000025,-0.00005854,0.0000026
 4,0.00027930,0.00006321,-0.00020126,-0.00014564,0.00010371,-0.00047146
 ,-0.00044431,0.01301928,0.00715386,0.02030403,0.00083460,-0.00016608,-
 0.00050494,0.00080527,-0.00131148,0.00058478,0.00039958,0.00037884,0.0
 0020033,0.00011571,-0.00020517,-0.00018282,-0.00071615,0.00030169,-0.0
 0160909,0.00082227,-0.00214316,0.00113542,0.00024971,0.00007963,-0.000
 04760,0.00085453,0.00024826,0.00203205,0.00016008,-0.00006840,-0.00027
 198,-0.00064698,-0.00046041,-0.00067473,-0.00034519,-0.00027261,-0.000
 26521,0.00000476,-0.00000567,0.00003947,0.00001763,-0.00000742,-0.0000
 0183,0.00000734,-0.00001616,0.00000307,-0.00000797,0.00000334,-0.00000
 313,-0.04056246,-0.06855181,-0.05807345,-0.01251554,-0.00624175,-0.022
 73353,-0.00356931,-0.00221458,-0.00412068,0.04152856,0.07389188,-0.000
 01372,-0.00001123,-0.00000384,0.00000748,0.00000740,0.00000246,-0.0000
 0584,0.00003851,0.00002361,-0.00000339,-0.00000823,-0.00000120,0.00001
 003,0.00000670,-0.00000110,-0.00000053,0.00001186,0.00000181,-0.000002
 35,0.00000282,-0.00000079,0.00000504,-0.00000693,0.00000745,0.00000533
 ,0.00000846,0.00000967,-0.00000203,-0.00000386,-0.00000183,-0.00000545
 ,0.00000024,-0.00000115,0.00011480,-0.00015808,-0.00020154,-0.00027958
 ,-0.00029804,-0.00017452,0.00006697,0.00019904,-0.00000404,-0.00020548
 ,0.00009235,-0.00010514,0.00001605,0.00000432,0.00009290,0.00008134,0.
 00001320,0.00010431,-0.00003341,-0.00001653,-0.00000201,0.00003107,0.0
 0007180,-0.00001727,0.00001362,0.00000325,0.00000491,-0.00001554,-0.00
 002285,-0.00000230,0.00000024,-0.00002811,0.00000016,-0.00001573,-0.00
 013053,0.00021805,0.00003083,0.00005369,-0.00004890,-0.00001295,0.0000
 1167,-0.00006246,0.00000348,0.00000947,-0.00001906,0.00000733,0.000009
 88,0.00000423,-0.00000423,0.00000313,-0.00001232,0.00000092,0.00000731
 ,0.00000169,0.00000171,-0.00000227,0.00000393,-0.00000369,-0.00000085,
 -0.00000806,-0.00001855,-0.00000441,0.00000920,0.00000594,-0.00001199,
 0.00000235,-0.00000346,0.00000097,0.00000020,-0.00000327,-0.00000183,0
 .00000578,0.00000365,0.00000119,-0.00000121,-0.00000137,0.00000460,-0.
 00000237,-0.00000208,0.00000022,0.00000030,-0.00000182,-0.00000054,0.0
 0000194,0.00001100,0.00009228,-0.00008166,0.00002379,-0.00002814,0.000
 06919,0.00017268,-0.00011672,-0.00002613,-0.00353270,-0.00047764,-0.00
 469610,-0.00012519,-0.00003389,-0.00001159,-0.00195413,0.00023815,0.00
 117475,-0.00006503,-0.00017692,-0.00008080,-0.00002719,0.00005570,0.00
 007434,0.00042677,-0.00033586,0.00042885,0.00053766,0.00068728,-0.0007
 5679,-0.00002342,-0.00000120,0.00002183,0.00026333,-0.00060086,0.00019
 235,0.00018622,-0.00002806,0.00021412,0.00031883,0.00088101,0.00003526
 ,0.00011767,-0.00021090,-0.00064778,0.00001839,0.00002166,-0.00002580,
 -0.00001270,0.00001359,0.00000370,-0.00001570,0.00001087,0.00000104,-0
 .00000239,-0.00000413,0.00000268,-0.11163591,-0.05912918,-0.21217045,0
 .00520521,0.00167320,0.00748586,-0.01334517,-0.00740210,-0.01967469,0.
 12354135,0.06478104,0.22879345,-0.00061350,-0.00054984,-0.00008736,0.0
 0057880,0.00042664,0.00026438,0.00033198,0.00022986,0.00030224,-0.0003
 5596,-0.00000826,-0.00004513,0.00040660,-0.00012858,0.00008618,-0.0000
 5239,0.00060543,0.00008831,-0.00002335,0.00002712,0.00001153,-0.000090
 42,-0.00018778,-0.00002486,-0.00001359,-0.00003369,0.00006161,-0.00001
 709,-0.00004501,-0.00002957,-0.00003469,-0.00000415,-0.00005199,0.0001
 1178,-0.00012012,-0.00137274,-0.00010335,-0.00032697,0.00016345,0.0001
 0102,0.00004462,0.00001871,0.00006724,-0.00008345,0.00028565,-0.000069
 26,-0.00000962,-0.00007029,0.00025316,0.00009413,-0.00005163,-0.000051
 42,0.00001459,-0.00009827,0.00017876,-0.00024847,0.00001818,0.00007602
 ,-0.00005966,-0.00003019,-0.00001977,-0.00005535,0.00001631,0.00000529
 ,-0.00004540,-0.00002651,-0.00064629,-0.00218804,0.00207940,0.00090368
 ,0.00089348,-0.00037702,0.00015154,0.00045111,-0.00039633,0.00051139,-
 0.00018547,0.00009570,0.00006570,0.00021184,0.00005622,-0.00086561,0.0
 0032255,-0.00058371,0.00014044,0.00003961,0.00004833,0.00006992,-0.000
 01092,0.00008151,0.00026247,-0.00008870,-0.00008650,-0.00020521,-0.000
 15254,-0.00130677,0.00007780,-0.00006501,0.00003968,0.00000140,0.00000
 200,0.00004612,-0.00031138,0.00018274,-0.00023505,0.00005853,0.0000425
 6,0.00004400,-0.00000958,0.00001744,-0.00004106,0.00002875,-0.00001841
 ,0.00002328,-0.00003544,-0.00004920,0.00001916,0.00067337,0.00186477,-
 0.00160677,-0.00020267,0.00003881,-0.00040792,0.00017503,-0.00103570,0
 .00373962,-0.00383173,0.00336323,-0.00119190,-0.01073780,0.00842728,0.
 00036119,0.02072309,0.01440986,-0.00594116,-0.02462639,-0.05576395,0.0
 1789835,-0.00070105,-0.00278895,0.00020965,-0.14875269,-0.14245349,0.0
 4478716,-0.00064525,-0.00251661,-0.00328443,0.00067369,-0.00007326,0.0
 0038587,-0.00321388,0.00029265,0.00072662,0.00085106,0.00405508,-0.001
 26851,0.00106050,0.00146531,-0.00040940,0.00080077,0.00191257,-0.00063
 603,0.00027390,-0.00228468,0.00102233,-0.00009394,-0.00034048,-0.00076
 059,0.00059350,0.00032326,0.00065439,0.00030789,-0.00151175,-0.0000123
 9,0.00056850,0.00139718,0.00011323,-0.00013927,0.00057065,-0.00032340,
 -0.00002601,-0.00000986,-0.00033246,0.00010607,0.00001473,0.00014526,0
 .16529937,-0.00036357,-0.00081033,0.00011045,-0.00005727,-0.00063187,0
 .00001614,-0.00103069,-0.00010901,-0.00056459,0.00010097,0.00108165,-0
 .00019954,-0.00026710,0.00069555,0.00006195,-0.00060184,0.00007505,-0.
 00013752,-0.00025703,0.00015193,-0.00005221,0.00006404,-0.00030020,-0.
 00025949,0.00006558,0.00002452,0.00015961,-0.00012083,-0.00010950,-0.0
 0001624,-0.00008356,0.00000086,-0.00010272,0.00041566,-0.00041846,-0.0
 0328225,-0.00059830,-0.00090178,0.00029051,0.00043204,0.00016558,-0.00
 017183,0.00002613,-0.00002935,0.00044478,-0.00007949,-0.00000691,0.000
 04164,0.00044769,0.00020588,-0.00015958,-0.00009130,0.00001831,-0.0001
 5865,0.00023756,-0.00028877,0.00007337,0.00018516,-0.00010150,-0.00000
 655,-0.00001948,-0.00011584,0.00007477,0.00003191,-0.00010339,-0.00002
 496,0.00192659,-0.00847230,0.00745521,0.00095649,0.00284907,-0.0019356
 9,-0.00039705,0.00174004,-0.00143690,-0.00001886,-0.00047180,-0.000404
 74,0.00101633,0.00055001,0.00041065,-0.00173430,0.00103611,0.00013631,
 0.00032605,0.00075636,0.00021922,0.00020930,-0.00010994,0.00025272,0.0
 0031938,-0.00095882,0.00030223,0.00067736,-0.00129959,-0.00273722,-0.0
 0094232,0.00014881,-0.00029231,0.00004721,0.00009253,0.00010294,-0.000
 19415,0.00117281,-0.00072753,0.00006885,0.00004488,-0.00009609,-0.0000
 4077,0.00001674,-0.00001647,0.00010617,-0.00000556,0.00008645,-0.00012
 644,0.00010575,0.00004659,-0.00016071,0.00591069,-0.00599128,0.0008519
 7,0.00005026,0.00144877,-0.00147752,-0.00055009,0.01253775,0.01621427,
 0.00977515,0.00107183,-0.00317480,0.01472651,-0.00075974,0.00544509,-0
 .07580963,0.02394680,-0.04537132,-0.03299506,0.01561388,-0.00069208,-0
 .00102382,-0.00023626,-0.14360299,-0.50384746,0.13124289,-0.00215876,-
 0.00909333,-0.01014793,-0.00007115,0.00045047,0.00125199,-0.00390425,-
 0.00169453,0.00079861,0.00328823,-0.00063156,-0.00033882,0.00066438,0.
 00019048,0.00015228,0.00003770,0.00086999,-0.00002887,0.00375886,-0.00
 179015,-0.00132828,-0.00151380,0.00231108,0.00161339,-0.00116100,0.000
 78656,-0.00123077,0.00106475,0.00126266,-0.00007354,-0.00072171,-0.002
 20498,0.00025001,0.00061005,-0.00074423,0.00000970,-0.00024450,-0.0002
 9275,0.00007141,-0.00001912,0.00007894,0.00023500,0.17170230,0.5985773
 1,0.00002962,0.00024431,-0.00002229,-0.00003637,0.00028126,0.00022578,
 0.00051934,-0.00010634,0.00012454,-0.00011345,-0.00039798,0.00006438,0
 .00012877,-0.00030454,0.00000639,0.00026677,0.00003702,0.00006097,0.00
 012576,-0.00005550,-0.00002077,0.00001560,0.00010103,-0.00009218,-0.00
 001511,-0.00001145,-0.00007453,0.00003868,0.00003110,-0.00000367,0.000
 02179,-0.00000002,0.00003035,-0.00017712,-0.00001118,0.00133218,0.0001
 6364,0.00036991,-0.00011474,-0.00009764,-0.00010602,0.00000375,-0.0000
 2601,-0.00001597,-0.00014373,0.00000891,0.00003870,-0.00002912,-0.0002
 1365,-0.00004504,0.00008805,0.00002088,-0.00000391,0.00005240,-0.00004
 676,0.00013430,-0.00001207,-0.00006275,0.00003694,-0.00000295,0.000007
 04,0.00002500,-0.00002210,-0.00000672,0.00002475,0.00001052,-0.0006863
 6,0.00519560,-0.00327644,-0.00028670,-0.00173765,0.00065196,0.00007509
 ,-0.00125241,0.00053203,-0.00021876,0.00108830,0.00031458,-0.00101320,
 -0.00031911,-0.00033664,0.00218256,-0.00161221,-0.00268552,-0.00034717
 ,-0.00082424,-0.00029837,-0.00022005,0.00004363,-0.00014413,-0.0010408
 1,0.00031236,-0.00093995,-0.00128067,0.00051034,-0.00065166,0.00113686
 ,-0.00001743,0.00061843,-0.00008082,-0.00005570,-0.00007445,0.00015858
 ,-0.00071569,0.00031097,-0.00004276,-0.00006138,-0.00009475,-0.0000260
 7,0.00005889,-0.00000173,-0.00011599,0.00005528,-0.00004633,0.00003334
 ,0.00001094,0.00000977,0.00008958,-0.00283487,0.00265020,-0.00047223,0
 .00018691,-0.00059580,0.00059561,0.00053267,-0.00427767,-0.00533635,-0
 .00186694,0.00372760,0.00225634,-0.00388045,0.00341165,-0.00269669,0.0
 2694322,0.01055671,0.01534819,0.01688760,0.01401918,0.00005552,0.00006
 050,-0.00211825,0.04361933,0.12805205,-0.10349237,0.00069811,0.0027935
 0,0.00397837,-0.00002900,-0.00010294,-0.00038318,0.00125338,0.00050068
 ,-0.00061483,-0.00085092,-0.00033096,-0.00161708,-0.00036185,-0.000985
 53,0.00026888,0.00036165,0.00061870,-0.00026866,-0.00093367,0.00015166
 ,-0.00297891,-0.00027655,0.00000878,-0.00023889,0.00043731,-0.00021405
 ,0.00060194,-0.00020928,-0.00007194,0.00046675,0.00038831,0.00000712,-
 0.00179206,-0.00002239,0.00019068,-0.00023276,0.00025525,-0.00027650,0
 .00010272,-0.00014427,0.00029551,-0.00014946,-0.05280366,-0.16761127,0
 .08362700\\0.00000072,0.00000067,-0.00000139,-0.00000011,-0.00000055,-
 0.00000107,0.00000049,0.00000037,-0.00000100,0.00000040,-0.00000071,-0
 .00000143,0.00000073,-0.00000059,-0.00000202,0.00000063,-0.00000043,-0
 .00000205,0.00000044,-0.00000040,-0.00000160,0.00000022,0.00000024,-0.
 00000054,0.00000042,0.00000032,-0.00000135,0.00000104,0.00000029,-0.00
 000228,0.00000048,-0.00000016,-0.00000258,0.00000052,-0.00000068,0.,0.
 00000010,0.00000119,-0.00000008,0.00000007,0.00000009,-0.00000087,0.00
 000047,0.00000029,0.00000060,0.00000060,0.00000018,0.00000080,-0.00000
 069,0.00000017,-0.00000020,-0.00000045,-0.00000042,-0.00000082,0.00000
 062,-0.00000059,0.00000014,0.00000078,0.00000050,0.00000073,-0.0000001
 2,-0.00000027,-0.00000087,0.00000019,0.00000030,0.00000005,0.00000002,
 0.00000015,0.00000011,0.00000146,0.00000065,0.00000100,0.00000162,0.00
 000082,0.00000009,0.00000064,0.00000069,0.00000019,0.00000127,-0.00000
 034,-0.00000004,0.00000040,0.00000068,0.00000101,0.00000076,0.00000060
 ,-0.00000063,0.00000138,0.00000067,-0.00000050,-0.00000029,-0.00000056
 ,0.00000026,0.00000025,0.00000033,0.00000113,0.00000121,0.00000096,0.0
 0000072,0.00000114,0.00000035,-0.00000061,0.00000019,0.00000067,0.0000
 0133,0.00000071,0.00000027,0.00000078,0.00000068,0.00000039,0.00000037
 ,0.00000044,0.00000021,-0.00000022,0.00000011,-0.00000002,-0.00000010,
 0.00000029,0.00000051,-0.00000005,0.00000008,0.00000012,0.00000074,-0.
 00004257,-0.00039091,-0.00121556,-0.00000074,-0.00000002,0.00000064,-0
 .00000096,-0.00000047,-0.00000035,-0.00000094,-0.00000062,0.00000079,-
 0.00000076,-0.00000056,0.00000013,-0.00000076,-0.00000057,-0.00000076,
 -0.00000109,0.00000015,0.00000076,0.00004177,0.00038993,0.00121572,-0.
 00000083,-0.00000025,-0.00000060,-0.00000108,-0.00000027,0.00000212,-0
 .00000085,0.00000014,0.00000183,-0.00000136,-0.00000025,0.00000170,-0.
 00000065,0.00000006,0.00000175,-0.00000120,-0.00000037,-0.00000026,-0.
 00000126,-0.00000044,0.00000035,-0.00000053,-0.00000030,0.00000015,-0.
 00000094,-0.00000054,-0.00000053,-0.00000137,-0.00000023,0.00000109,-0
 .00000105,-0.00000034,0.00000029,-0.00000038,-0.00000015,0.00000072,-0
 .00000141,-0.00000040,0.00000098,-0.00000093,-0.00000056,0.00000130\\\
 @
 The archive entry for this job was punched.


      SCIENCE SANS CONSCIENCE N'EST QUE RUINE DE L'AME.

                                                  -- RABELAIS
 Job cpu time:       0 days 14 hours 15 minutes 37.6 seconds.
 Elapsed time:       0 days  0 hours 53 minutes 51.4 seconds.
 File lengths (MBytes):  RWF=   5293 Int=      0 D2E=      0 Chk=     48 Scr=      1
 Normal termination of Gaussian 16 at Fri Apr 17 08:27:19 2026.
98661.13user 89.87system 1:43:38elapsed 1588%CPU (0avgtext+0avgdata 12124956maxresident)k
40inputs+41196768outputs (1394major+11273153minor)pagefaults 0swaps
