 Entering Gaussian System, Link 0=g16
 Initial command:
 /cm/shared/apps/spack/cpu/opt/spack/linux-centos8-zen/gcc-8.3.1/gaussian-16.C.01-po5bqktfeugvmjyga3v7eigbecnokxng/g16/l1.exe "/scratch/jcuzick/job_48780924/Gau-1202239.inp" -scrdir="/scratch/jcuzick/job_48780924/"
 Entering Link 1 = /cm/shared/apps/spack/cpu/opt/spack/linux-centos8-zen/gcc-8.3.1/gaussian-16.C.01-po5bqktfeugvmjyga3v7eigbecnokxng/g16/l1.exe PID=   1202240.
  
 Copyright (c) 1988-2019, Gaussian, Inc.  All Rights Reserved.
  
 This is part of the Gaussian(R) 16 program.  It is based on
 the Gaussian(R) 09 system (copyright 2009, Gaussian, Inc.),
 the Gaussian(R) 03 system (copyright 2003, Gaussian, Inc.),
 the Gaussian(R) 98 system (copyright 1998, Gaussian, Inc.),
 the Gaussian(R) 94 system (copyright 1995, Gaussian, Inc.),
 the Gaussian 92(TM) system (copyright 1992, Gaussian, Inc.),
 the Gaussian 90(TM) system (copyright 1990, Gaussian, Inc.),
 the Gaussian 88(TM) system (copyright 1988, Gaussian, Inc.),
 the Gaussian 86(TM) system (copyright 1986, Carnegie Mellon
 University), and the Gaussian 82(TM) system (copyright 1983,
 Carnegie Mellon University). Gaussian is a federally registered
 trademark of Gaussian, Inc.
  
 This software contains proprietary and confidential information,
 including trade secrets, belonging to Gaussian, Inc.
  
 This software is provided under written license and may be
 used, copied, transmitted, or stored only in accord with that
 written license.
  
 The following legend is applicable only to US Government
 contracts under FAR:
  
                    RESTRICTED RIGHTS LEGEND
  
 Use, reproduction and disclosure by the US Government is
 subject to restrictions as set forth in subparagraphs (a)
 and (c) of the Commercial Computer Software - Restricted
 Rights clause in FAR 52.227-19.
  
 Gaussian, Inc.
 340 Quinnipiac St., Bldg. 40, Wallingford CT 06492
  
  
 ---------------------------------------------------------------
 Warning -- This program may not be used in any manner that
 competes with the business of Gaussian, Inc. or will provide
 assistance to any competitor of Gaussian, Inc.  The licensee
 of this program is prohibited from giving any competitor of
 Gaussian, Inc. access to this program.  By using this program,
 the user acknowledges that Gaussian, Inc. is engaged in the
 business of creating and licensing software in the field of
 computational chemistry and represents and warrants to the
 licensee that it is not a competitor of Gaussian, Inc. and that
 it will not use this program in any manner prohibited above.
 ---------------------------------------------------------------
  

 Cite this work as:
 Gaussian 16, Revision C.01,
 M. J. Frisch, G. W. Trucks, H. B. Schlegel, G. E. Scuseria, 
 M. A. Robb, J. R. Cheeseman, G. Scalmani, V. Barone, 
 G. A. Petersson, H. Nakatsuji, X. Li, M. Caricato, A. V. Marenich, 
 J. Bloino, B. G. Janesko, R. Gomperts, B. Mennucci, H. P. Hratchian, 
 J. V. Ortiz, A. F. Izmaylov, J. L. Sonnenberg, D. Williams-Young, 
 F. Ding, F. Lipparini, F. Egidi, J. Goings, B. Peng, A. Petrone, 
 T. Henderson, D. Ranasinghe, V. G. Zakrzewski, J. Gao, N. Rega, 
 G. Zheng, W. Liang, M. Hada, M. Ehara, K. Toyota, R. Fukuda, 
 J. Hasegawa, M. Ishida, T. Nakajima, Y. Honda, O. Kitao, H. Nakai, 
 T. Vreven, K. Throssell, J. A. Montgomery, Jr., J. E. Peralta, 
 F. Ogliaro, M. J. Bearpark, J. J. Heyd, E. N. Brothers, K. N. Kudin, 
 V. N. Staroverov, T. A. Keith, R. Kobayashi, J. Normand, 
 K. Raghavachari, A. P. Rendell, J. C. Burant, S. S. Iyengar, 
 J. Tomasi, M. Cossi, J. M. Millam, M. Klene, C. Adamo, R. Cammi, 
 J. W. Ochterski, R. L. Martin, K. Morokuma, O. Farkas, 
 J. B. Foresman, and D. J. Fox, Gaussian, Inc., Wallingford CT, 2019.
 
 ******************************************
 Gaussian 16:  ES64L-G16RevC.01  3-Jul-2019
                 5-May-2026 
 ******************************************
 %mem=16GB
 %nprocshared=16
 Will use up to   16 processors via shared memory.
 ----------------------------------------------------------------------
 # opt=(calcfc,ts,noeigen) freq=noraman ub3lyp/6-31g(d,p) nosymm guess=
 mix empiricaldispersion=gd3
 ----------------------------------------------------------------------
 1/5=1,10=4,11=1,18=20,26=3,38=1/1,3;
 2/9=110,12=2,15=1,17=6,18=5,40=1/2;
 3/5=1,6=6,7=101,11=2,25=1,30=1,71=2,74=-5,116=2,124=31,140=1/1,2,3;
 4/13=-1/1;
 5/5=2,38=5/2;
 8/6=4,10=90,11=11/1;
 11/6=1,8=1,9=11,15=111,16=1,31=1/1,2,10;
 10/6=1,13=1,31=1/2;
 6/7=2,8=2,9=2,10=2,28=1/1;
 7/10=1,25=1,30=1/1,2,3,16;
 1/5=1,10=4,11=1,18=20,26=3/3(2);
 2/9=110,15=1/2;
 99//99;
 2/9=110,15=1/2;
 3/5=1,6=6,7=101,11=2,25=1,30=1,71=1,74=-5,116=2,124=31/1,2,3;
 4/5=5,16=3,69=1/1;
 5/5=2,38=5/2;
 7/30=1/1,2,3,16;
 1/5=1,11=1,18=20,26=3/3(-5);
 2/9=110,15=1/2;
 6/7=2,8=2,9=2,10=2,19=2,28=1/1;
 99/9=1/99;
 --------
 CuL_subs
 --------
 Symbolic Z-matrix:
 Charge =  0 Multiplicity = 2
 C                     4.65522  -2.1173    1.96115 
 H                     5.67556  -1.75931   2.06496 
 C                     3.2256   -3.91783   1.11547 
 C                     3.76423  -1.95511   3.06825 
 H                     3.99412  -1.21006   3.82378 
 C                     4.11332  -0.45694   0.73562 
 C                     4.40845  -3.20169   1.0645 
 C                     2.57772  -2.65659   3.14449 
 C                     2.77538   0.79215  -0.49741 
 H                     1.80176   1.03615  -0.90726 
 C                     2.91081  -5.00208   0.11303 
 H                     2.71157  -5.96752   0.59741 
 H                     2.03465  -4.747    -0.49882 
 H                     3.7458   -5.15168  -0.57486 
 C                     1.57675  -2.43667   4.24791 
 H                     0.62351  -2.0843    3.83946 
 H                     1.36295  -3.36859   4.78191 
 H                     1.94005  -1.69688   4.96537 
 C                     3.91861   1.49678  -0.73337 
 H                     4.04804   2.38138  -1.34148 
 S                     5.2469    0.75537   0.12516 
 N                     2.90354  -0.3122    0.33259 
 C                     2.30355  -3.61987   2.14499 
 O                     1.10844  -4.27246   2.25719 
 H                     0.98994  -4.87145   1.50956 
 H                     5.13145  -3.41612   0.28333 
 
 Add virtual bond connecting atoms C6         and C1         Dist= 4.03D+00.

 GradGradGradGradGradGradGradGradGradGradGradGradGradGradGradGradGradGrad
 Berny optimization.
 Initialization pass.
                           ----------------------------
                           !    Initial Parameters    !
                           ! (Angstroms and Degrees)  !
 --------------------------                            --------------------------
 ! Name  Definition              Value          Derivative Info.                !
 --------------------------------------------------------------------------------
 ! R1    R(1,2)                  1.0863         calculate D2E/DX2 analytically  !
 ! R2    R(1,4)                  1.4303         calculate D2E/DX2 analytically  !
 ! R3    R(1,6)                  2.1336         calculate D2E/DX2 analytically  !
 ! R4    R(1,7)                  1.4286         calculate D2E/DX2 analytically  !
 ! R5    R(3,7)                  1.3837         calculate D2E/DX2 analytically  !
 ! R6    R(3,11)                 1.5098         calculate D2E/DX2 analytically  !
 ! R7    R(3,23)                 1.4138         calculate D2E/DX2 analytically  !
 ! R8    R(4,5)                  1.0857         calculate D2E/DX2 analytically  !
 ! R9    R(4,8)                  1.3805         calculate D2E/DX2 analytically  !
 ! R10   R(6,21)                 1.7684         calculate D2E/DX2 analytically  !
 ! R11   R(6,22)                 1.2833         calculate D2E/DX2 analytically  !
 ! R12   R(7,26)                 1.0858         calculate D2E/DX2 analytically  !
 ! R13   R(8,15)                 1.5059         calculate D2E/DX2 analytically  !
 ! R14   R(8,23)                 1.4149         calculate D2E/DX2 analytically  !
 ! R15   R(9,10)                 1.0842         calculate D2E/DX2 analytically  !
 ! R16   R(9,19)                 1.3635         calculate D2E/DX2 analytically  !
 ! R17   R(9,22)                 1.3874         calculate D2E/DX2 analytically  !
 ! R18   R(11,12)                1.0984         calculate D2E/DX2 analytically  !
 ! R19   R(11,13)                1.0987         calculate D2E/DX2 analytically  !
 ! R20   R(11,14)                1.0921         calculate D2E/DX2 analytically  !
 ! R21   R(15,16)                1.0953         calculate D2E/DX2 analytically  !
 ! R22   R(15,17)                1.0951         calculate D2E/DX2 analytically  !
 ! R23   R(15,18)                1.0927         calculate D2E/DX2 analytically  !
 ! R24   R(19,20)                1.0812         calculate D2E/DX2 analytically  !
 ! R25   R(19,21)                1.7467         calculate D2E/DX2 analytically  !
 ! R26   R(23,24)                1.3663         calculate D2E/DX2 analytically  !
 ! R27   R(24,25)                0.9653         calculate D2E/DX2 analytically  !
 ! A1    A(2,1,4)              118.2791         calculate D2E/DX2 analytically  !
 ! A2    A(2,1,6)               92.1201         calculate D2E/DX2 analytically  !
 ! A3    A(2,1,7)              118.1896         calculate D2E/DX2 analytically  !
 ! A4    A(4,1,6)              101.428          calculate D2E/DX2 analytically  !
 ! A5    A(4,1,7)              117.6646         calculate D2E/DX2 analytically  !
 ! A6    A(6,1,7)              100.7377         calculate D2E/DX2 analytically  !
 ! A7    A(7,3,11)             121.6984         calculate D2E/DX2 analytically  !
 ! A8    A(7,3,23)             118.3765         calculate D2E/DX2 analytically  !
 ! A9    A(11,3,23)            119.9236         calculate D2E/DX2 analytically  !
 ! A10   A(1,4,5)              118.9826         calculate D2E/DX2 analytically  !
 ! A11   A(1,4,8)              121.3678         calculate D2E/DX2 analytically  !
 ! A12   A(5,4,8)              119.4894         calculate D2E/DX2 analytically  !
 ! A13   A(1,6,21)             124.6764         calculate D2E/DX2 analytically  !
 ! A14   A(1,6,22)             120.5021         calculate D2E/DX2 analytically  !
 ! A15   A(21,6,22)            114.743          calculate D2E/DX2 analytically  !
 ! A16   A(1,7,3)              121.1587         calculate D2E/DX2 analytically  !
 ! A17   A(1,7,26)             119.1079         calculate D2E/DX2 analytically  !
 ! A18   A(3,7,26)             119.5723         calculate D2E/DX2 analytically  !
 ! A19   A(4,8,15)             122.5171         calculate D2E/DX2 analytically  !
 ! A20   A(4,8,23)             118.2594         calculate D2E/DX2 analytically  !
 ! A21   A(15,8,23)            119.2232         calculate D2E/DX2 analytically  !
 ! A22   A(10,9,19)            124.8356         calculate D2E/DX2 analytically  !
 ! A23   A(10,9,22)            119.2249         calculate D2E/DX2 analytically  !
 ! A24   A(19,9,22)            115.9395         calculate D2E/DX2 analytically  !
 ! A25   A(3,11,12)            112.1012         calculate D2E/DX2 analytically  !
 ! A26   A(3,11,13)            111.6719         calculate D2E/DX2 analytically  !
 ! A27   A(3,11,14)            110.9255         calculate D2E/DX2 analytically  !
 ! A28   A(12,11,13)           107.7589         calculate D2E/DX2 analytically  !
 ! A29   A(12,11,14)           107.2206         calculate D2E/DX2 analytically  !
 ! A30   A(13,11,14)           106.9016         calculate D2E/DX2 analytically  !
 ! A31   A(8,15,16)            110.6227         calculate D2E/DX2 analytically  !
 ! A32   A(8,15,17)            111.2702         calculate D2E/DX2 analytically  !
 ! A33   A(8,15,18)            111.0368         calculate D2E/DX2 analytically  !
 ! A34   A(16,15,17)           106.6005         calculate D2E/DX2 analytically  !
 ! A35   A(16,15,18)           108.4454         calculate D2E/DX2 analytically  !
 ! A36   A(17,15,18)           108.7157         calculate D2E/DX2 analytically  !
 ! A37   A(9,19,20)            128.352          calculate D2E/DX2 analytically  !
 ! A38   A(9,19,21)            109.4622         calculate D2E/DX2 analytically  !
 ! A39   A(20,19,21)           122.1857         calculate D2E/DX2 analytically  !
 ! A40   A(6,21,19)             88.4637         calculate D2E/DX2 analytically  !
 ! A41   A(6,22,9)             111.3904         calculate D2E/DX2 analytically  !
 ! A42   A(3,23,8)             122.1063         calculate D2E/DX2 analytically  !
 ! A43   A(3,23,24)            121.9786         calculate D2E/DX2 analytically  !
 ! A44   A(8,23,24)            115.8899         calculate D2E/DX2 analytically  !
 ! A45   A(23,24,25)           109.8865         calculate D2E/DX2 analytically  !
 ! D1    D(2,1,4,5)             20.6018         calculate D2E/DX2 analytically  !
 ! D2    D(2,1,4,8)           -164.0227         calculate D2E/DX2 analytically  !
 ! D3    D(6,1,4,5)            -78.1182         calculate D2E/DX2 analytically  !
 ! D4    D(6,1,4,8)             97.2573         calculate D2E/DX2 analytically  !
 ! D5    D(7,1,4,5)            173.1834         calculate D2E/DX2 analytically  !
 ! D6    D(7,1,4,8)            -11.4411         calculate D2E/DX2 analytically  !
 ! D7    D(2,1,6,21)             6.7787         calculate D2E/DX2 analytically  !
 ! D8    D(2,1,6,22)          -176.616          calculate D2E/DX2 analytically  !
 ! D9    D(4,1,6,21)           126.1958         calculate D2E/DX2 analytically  !
 ! D10   D(4,1,6,22)           -57.1989         calculate D2E/DX2 analytically  !
 ! D11   D(7,1,6,21)          -112.441          calculate D2E/DX2 analytically  !
 ! D12   D(7,1,6,22)            64.1643         calculate D2E/DX2 analytically  !
 ! D13   D(2,1,7,3)            164.1549         calculate D2E/DX2 analytically  !
 ! D14   D(2,1,7,26)           -20.4784         calculate D2E/DX2 analytically  !
 ! D15   D(4,1,7,3)             11.5483         calculate D2E/DX2 analytically  !
 ! D16   D(4,1,7,26)          -173.085          calculate D2E/DX2 analytically  !
 ! D17   D(6,1,7,3)            -97.5451         calculate D2E/DX2 analytically  !
 ! D18   D(6,1,7,26)            77.8216         calculate D2E/DX2 analytically  !
 ! D19   D(11,3,7,1)           175.6558         calculate D2E/DX2 analytically  !
 ! D20   D(11,3,7,26)            0.3102         calculate D2E/DX2 analytically  !
 ! D21   D(23,3,7,1)            -4.7928         calculate D2E/DX2 analytically  !
 ! D22   D(23,3,7,26)          179.8617         calculate D2E/DX2 analytically  !
 ! D23   D(7,3,11,12)          122.9306         calculate D2E/DX2 analytically  !
 ! D24   D(7,3,11,13)         -116.031          calculate D2E/DX2 analytically  !
 ! D25   D(7,3,11,14)            3.1046         calculate D2E/DX2 analytically  !
 ! D26   D(23,3,11,12)         -56.614          calculate D2E/DX2 analytically  !
 ! D27   D(23,3,11,13)          64.4243         calculate D2E/DX2 analytically  !
 ! D28   D(23,3,11,14)        -176.44           calculate D2E/DX2 analytically  !
 ! D29   D(7,3,23,8)            -2.5221         calculate D2E/DX2 analytically  !
 ! D30   D(7,3,23,24)          179.3794         calculate D2E/DX2 analytically  !
 ! D31   D(11,3,23,8)          177.0375         calculate D2E/DX2 analytically  !
 ! D32   D(11,3,23,24)          -1.0609         calculate D2E/DX2 analytically  !
 ! D33   D(1,4,8,15)          -175.6684         calculate D2E/DX2 analytically  !
 ! D34   D(1,4,8,23)             4.5465         calculate D2E/DX2 analytically  !
 ! D35   D(5,4,8,15)            -0.3159         calculate D2E/DX2 analytically  !
 ! D36   D(5,4,8,23)           179.899          calculate D2E/DX2 analytically  !
 ! D37   D(1,6,21,19)          177.0646         calculate D2E/DX2 analytically  !
 ! D38   D(22,6,21,19)           0.285          calculate D2E/DX2 analytically  !
 ! D39   D(1,6,22,9)          -177.3125         calculate D2E/DX2 analytically  !
 ! D40   D(21,6,22,9)           -0.3861         calculate D2E/DX2 analytically  !
 ! D41   D(4,8,15,16)          118.3388         calculate D2E/DX2 analytically  !
 ! D42   D(4,8,15,17)         -123.3624         calculate D2E/DX2 analytically  !
 ! D43   D(4,8,15,18)           -2.1216         calculate D2E/DX2 analytically  !
 ! D44   D(23,8,15,16)         -61.8782         calculate D2E/DX2 analytically  !
 ! D45   D(23,8,15,17)          56.4207         calculate D2E/DX2 analytically  !
 ! D46   D(23,8,15,18)         177.6615         calculate D2E/DX2 analytically  !
 ! D47   D(4,8,23,3)             2.6457         calculate D2E/DX2 analytically  !
 ! D48   D(4,8,23,24)         -179.1472         calculate D2E/DX2 analytically  !
 ! D49   D(15,8,23,3)         -177.1466         calculate D2E/DX2 analytically  !
 ! D50   D(15,8,23,24)           1.0605         calculate D2E/DX2 analytically  !
 ! D51   D(10,9,19,20)           0.0532         calculate D2E/DX2 analytically  !
 ! D52   D(10,9,19,21)         179.8962         calculate D2E/DX2 analytically  !
 ! D53   D(22,9,19,20)        -179.9413         calculate D2E/DX2 analytically  !
 ! D54   D(22,9,19,21)          -0.0983         calculate D2E/DX2 analytically  !
 ! D55   D(10,9,22,6)         -179.6782         calculate D2E/DX2 analytically  !
 ! D56   D(19,9,22,6)            0.3166         calculate D2E/DX2 analytically  !
 ! D57   D(9,19,21,6)           -0.0922         calculate D2E/DX2 analytically  !
 ! D58   D(20,19,21,6)         179.7623         calculate D2E/DX2 analytically  !
 ! D59   D(3,23,24,25)          -4.8076         calculate D2E/DX2 analytically  !
 ! D60   D(8,23,24,25)         176.9828         calculate D2E/DX2 analytically  !
 --------------------------------------------------------------------------------
 Trust Radius=3.00D-01 FncErr=1.00D-07 GrdErr=1.00D-06 EigMax=2.50D+02 EigMin=1.00D-04
 Number of steps in this run=    142 maximum allowed number of steps=    156.
 Search for a saddle point of order  1.
 GradGradGradGradGradGradGradGradGradGradGradGradGradGradGradGradGradGrad

                          Input orientation:                          
 ---------------------------------------------------------------------
 Center     Atomic      Atomic             Coordinates (Angstroms)
 Number     Number       Type             X           Y           Z
 ---------------------------------------------------------------------
      1          6           0        4.655217   -2.117299    1.961153
      2          1           0        5.675555   -1.759305    2.064962
      3          6           0        3.225602   -3.917828    1.115473
      4          6           0        3.764234   -1.955108    3.068251
      5          1           0        3.994121   -1.210059    3.823776
      6          6           0        4.113318   -0.456936    0.735615
      7          6           0        4.408452   -3.201695    1.064502
      8          6           0        2.577715   -2.656592    3.144494
      9          6           0        2.775381    0.792153   -0.497407
     10          1           0        1.801757    1.036152   -0.907261
     11          6           0        2.910810   -5.002078    0.113034
     12          1           0        2.711568   -5.967516    0.597412
     13          1           0        2.034654   -4.746995   -0.498824
     14          1           0        3.745797   -5.151679   -0.574857
     15          6           0        1.576747   -2.436668    4.247915
     16          1           0        0.623507   -2.084296    3.839456
     17          1           0        1.362946   -3.368586    4.781912
     18          1           0        1.940048   -1.696877    4.965371
     19          6           0        3.918607    1.496783   -0.733365
     20          1           0        4.048036    2.381380   -1.341478
     21         16           0        5.246898    0.755374    0.125160
     22          7           0        2.903540   -0.312203    0.332591
     23          6           0        2.303551   -3.619866    2.144990
     24          8           0        1.108437   -4.272458    2.257194
     25          1           0        0.989939   -4.871448    1.509557
     26          1           0        5.131446   -3.416116    0.283330
 ---------------------------------------------------------------------
                    Distance matrix (angstroms):
                    1          2          3          4          5
     1  C    0.000000
     2  H    1.086290   0.000000
     3  C    2.449669   3.400444   0.000000
     4  C    1.430323   2.167504   2.820591   0.000000
     5  H    2.174741   2.494457   3.906090   1.085709   0.000000
     6  C    2.133636   2.429797   3.593063   2.794203   3.180902
     7  C    1.428562   2.164939   1.383683   2.446223   3.428101
     8  C    2.450948   3.401048   2.475359   1.380478   2.135436
     9  C    4.247730   4.635373   4.998800   4.608600   4.915974
    10  H    5.129745   5.626278   5.537211   5.348238   5.677555
    11  C    3.844535   4.687154   1.509826   4.329627   5.415033
    12  H    4.523465   5.352379   2.175739   4.828309   5.889632
    13  H    4.453553   5.362411   2.170675   4.848722   5.918978
    14  H    4.057814   4.711774   2.156434   4.846715   5.911515
    15  C    3.848149   4.693009   3.837284   2.531523   2.743749
    16  H    4.447898   5.364479   4.189609   3.236605   3.482180
    17  H    4.512366   5.345110   4.148967   3.271198   3.535583
    18  H    4.071145   4.729723   4.626769   2.644504   2.399885
    19  C    4.567780   4.638923   5.763373   5.137282   5.300965
    20  H    5.613747   5.603385   6.811243   6.191234   6.291358
    21  S    3.460232   3.204714   5.187020   4.266942   4.371743
    22  N    2.996491   3.574812   3.703668   3.305112   3.766150
    23  C    2.796755   3.852078   1.413812   2.399463   3.388734
    24  O    4.160769   5.216460   2.431394   3.616792   4.489949
    25  H    4.606901   5.652336   2.462292   4.316396   5.271289
    26  H    2.174583   2.493048   2.139256   3.429227   4.323766
                    6          7          8          9         10
     6  C    0.000000
     7  C    2.780103   0.000000
     8  C    3.605449   2.824022   0.000000
     9  C    2.206953   4.588824   5.019597   0.000000
    10  H    3.204944   5.351827   5.536713   1.084186   0.000000
    11  C    4.742568   2.527766   3.847338   5.827872   6.223441
    12  H    5.687750   3.278316   4.179445   6.848053   7.221022
    13  H    4.924357   3.235252   4.235383   5.588456   5.802228
    14  H    4.888049   2.632308   4.628547   6.023026   6.494539
    15  C    4.763379   4.328734   1.505935   5.863454   6.219883
    16  H    4.945797   4.824392   2.151610   5.631421   5.801447
    17  H    5.693397   4.808544   2.159569   6.868619   7.208395
    18  H    4.914407   4.855335   2.154824   6.060940   6.478918
    19  C    2.452108   5.054500   5.838348   1.363505   2.173356
    20  H    3.517757   6.090104   6.904126   2.204030   2.654044
    21  S    1.768433   4.152559   5.280381   2.548988   3.607454
    22  N    1.283331   3.339104   3.675476   1.387416   2.137573
    23  C    3.907137   2.402692   1.414946   5.164378   5.589860
    24  O    5.089472   3.668671   2.357351   6.001401   6.218988
    25  H    5.462820   3.830454   3.177993   6.268340   6.434267
    26  H    3.161944   1.085784   3.909562   4.885706   5.685686
                   11         12         13         14         15
    11  C    0.000000
    12  H    1.098358   0.000000
    13  H    1.098675   1.774716   0.000000
    14  H    1.092144   1.763359   1.759989   0.000000
    15  C    5.045621   5.203929   5.298945   5.944341   0.000000
    16  H    5.256560   5.472682   5.282232   6.216405   1.095295
    17  H    5.182914   5.107177   5.498852   6.127999   1.095141
    18  H    5.950790   6.157326   6.258562   6.774254   1.092713
    19  C    6.630780   7.677478   6.526029   6.652596   6.765316
    20  H    7.610804   8.674647   7.455032   7.577997   7.782170
    21  S    6.213349   7.200567   6.401869   6.134868   6.376225
    22  N    4.695017   5.664764   4.594953   4.995336   4.647956
    23  C    2.531426   2.841291   2.886603   3.438618   2.520019
    24  O    2.894532   2.863237   2.945963   3.968527   2.748165
    25  H    2.378463   2.235482   2.267270   3.466708   3.710944
    26  H    2.734136   3.530453   3.460220   2.380900   5.414161
                   16         17         18         19         20
    16  H    0.000000
    17  H    1.756244   0.000000
    18  H    1.775122   1.778009   0.000000
    19  C    6.677762   7.785981   6.825669   0.000000
    20  H    7.649297   8.818601   7.800778   1.081233   0.000000
    21  S    6.575368   7.333312   6.354245   1.746743   2.496436
    22  N    4.542793   5.613498   4.930344   2.332178   3.371612
    23  C    2.837558   2.810914   3.432866   6.088795   7.156371
    24  O    2.743495   2.693689   3.828762   7.079876   8.115740
    25  H    3.651153   3.620226   4.787824   7.359495   8.371611
    26  H    5.894174   5.868653   5.921344   5.161514   6.117576
                   21         22         23         24         25
    21  S    0.000000
    22  N    2.583423   0.000000
    23  C    5.646745   3.819085   0.000000
    24  O    6.852118   4.755009   1.366296   0.000000
    25  H    7.190228   5.082699   1.922449   0.965294   0.000000
    26  H    4.176084   3.821030   3.391796   4.562243   4.557818
                   26
    26  H    0.000000
 Symmetry turned off by external request.
 Stoichiometry    C11H12NOS(2)
 Framework group  C1[X(C11H12NOS)]
 Deg. of freedom    72
 Full point group                 C1      NOp   1
 Rotational constants (GHZ):           1.0667028           0.3617008           0.3378039
 Standard basis: 6-31G(d,p) (6D, 7F)
   274 basis functions,   500 primitive gaussians,   274 cartesian basis functions
    55 alpha electrons       54 beta electrons
       nuclear repulsion energy       940.4357819430 Hartrees.
 NAtoms=   26 NActive=   26 NUniq=   26 SFac= 1.00D+00 NAtFMM=   60 NAOKFM=F Big=F
 Integral buffers will be    131072 words long.
 Raffenetti 2 integral format.
 Two-electron integral symmetry is turned off.
 Nuclear repulsion after empirical dispersion term =      940.4133705828 Hartrees.
 One-electron integrals computed using PRISM.
 NBasis=   274 RedAO= T EigKep=  4.80D-04  NBF=   274
 NBsUse=   274 1.00D-06 EigRej= -1.00D+00 NBFU=   274
 ExpMin= 1.17D-01 ExpMax= 2.19D+04 ExpMxC= 3.30D+03 IAcc=3 IRadAn=         5 AccDes= 0.00D+00
 Harris functional with IExCor=  402 and IRadAn=       5 diagonalized for initial guess.
 HarFok:  IExCor=  402 AccDes= 0.00D+00 IRadAn=         5 IDoV= 1 UseB2=F ITyADJ=14
 ICtDFT=  3500011 ScaDFX=  1.000000  1.000000  1.000000  1.000000
 FoFCou: FMM=F IPFlag=           0 FMFlag=      100000 FMFlg1=           0
         NFxFlg=           0 DoJE=T BraDBF=F KetDBF=T FulRan=T
         wScrn=  0.000000 ICntrl=       500 IOpCl=  0 I1Cent=   200000004 NGrid=           0
         NMat0=    1 NMatS0=      1 NMatT0=    0 NMatD0=    1 NMtDS0=    0 NMtDT0=    0
 Symmetry not used in FoFCou.
 Mixing orbitals, IMix= 1 IMixAn=  0 NRI=1 NE=   55 Coef=  7.07106781D-01  7.07106781D-01
 Mixing orbitals, IMix= 1 IMixAn=  0 NRI=1 NE=   54 Coef= -7.07106781D-01  7.07106781D-01
 Initial guess <Sx>= 0.0000 <Sy>= 0.0000 <Sz>= 0.5000 <S**2>= 1.0000 S= 0.6180
 Requested convergence on RMS density matrix=1.00D-08 within 128 cycles.
 Requested convergence on MAX density matrix=1.00D-06.
 Requested convergence on             energy=1.00D-06.
 No special actions if energy rises.
 Integral accuracy reduced to 1.0D-05 until final iterations.
 Initial convergence to 1.0D-05 achieved.  Increase integral accuracy.
 SCF Done:  E(UB3LYP) =  -954.503376504     A.U. after   23 cycles
            NFock= 23  Conv=0.57D-08     -V/T= 2.0070
 <Sx>= 0.0000 <Sy>= 0.0000 <Sz>= 0.5000 <S**2>= 0.7817 S= 0.5157
 <L.S>= 0.000000000000E+00
 Annihilation of the first spin contaminant:
 S**2 before annihilation     0.7817,   after     0.7507
 DoSCS=F DFT=T ScalE2(SS,OS)=  1.000000  1.000000
 Range of M.O.s used for correlation:     1   274
 NBasis=   274 NAE=    55 NBE=    54 NFC=     0 NFV=     0
 NROrb=    274 NOA=    55 NOB=    54 NVA=   219 NVB=   220
 Symmetrizing basis deriv contribution to polar:
 IMax=3 JMax=2 DiffMx= 0.00D+00
 G2DrvN: will do    27 centers at a time, making    1 passes.
 Calling FoFCou, ICntrl=  3107 FMM=F I1Cent=   0 AccDes= 0.00D+00.
 End of G2Drv F.D. properties file   721 does not exist.
 End of G2Drv F.D. properties file   722 does not exist.
 End of G2Drv F.D. properties file   788 does not exist.
          IDoAtm=11111111111111111111111111
          Differentiating once with respect to nuclear coordinates.
 Keep R1 and R2 ints in memory in canonical form, NReq=1437104459.
          There are    81 degrees of freedom in the 1st order CPHF.  IDoFFX=6 NUNeed=     0.
     75 vectors produced by pass  0 Test12= 2.95D-14 1.23D-09 XBig12= 3.52D-01 2.29D-01.
 AX will form    75 AO Fock derivatives at one time.
     75 vectors produced by pass  1 Test12= 2.95D-14 1.23D-09 XBig12= 4.50D-02 5.09D-02.
     75 vectors produced by pass  2 Test12= 2.95D-14 1.23D-09 XBig12= 1.19D-03 6.94D-03.
     75 vectors produced by pass  3 Test12= 2.95D-14 1.23D-09 XBig12= 1.98D-05 7.40D-04.
     75 vectors produced by pass  4 Test12= 2.95D-14 1.23D-09 XBig12= 1.53D-07 5.47D-05.
     75 vectors produced by pass  5 Test12= 2.95D-14 1.23D-09 XBig12= 7.52D-10 3.19D-06.
     54 vectors produced by pass  6 Test12= 2.95D-14 1.23D-09 XBig12= 3.48D-12 1.41D-07.
     17 vectors produced by pass  7 Test12= 2.95D-14 1.23D-09 XBig12= 1.22D-14 8.46D-09.
 InvSVY:  IOpt=1 It=  1 EMax= 5.55D-16
 Solved reduced A of dimension   521 with    81 vectors.
 End of Minotr F.D. properties file   721 does not exist.
 End of Minotr F.D. properties file   722 does not exist.
 End of Minotr F.D. properties file   788 does not exist.

 **********************************************************************

            Population analysis using the SCF Density.

 **********************************************************************

 Alpha  occ. eigenvalues --  -88.89807 -19.18678 -14.32000 -10.24961 -10.23522
 Alpha  occ. eigenvalues --  -10.20988 -10.20961 -10.20653 -10.19908 -10.19865
 Alpha  occ. eigenvalues --  -10.19238 -10.19136 -10.18748 -10.17687  -7.95955
 Alpha  occ. eigenvalues --   -5.92373  -5.92001  -5.91644  -1.06769  -0.94451
 Alpha  occ. eigenvalues --   -0.85518  -0.78797  -0.77951  -0.75662  -0.71671
 Alpha  occ. eigenvalues --   -0.69922  -0.68141  -0.61426  -0.58450  -0.57335
 Alpha  occ. eigenvalues --   -0.54118  -0.52081  -0.48885  -0.48399  -0.46680
 Alpha  occ. eigenvalues --   -0.44315  -0.42647  -0.41562  -0.41172  -0.40937
 Alpha  occ. eigenvalues --   -0.40418  -0.39128  -0.38910  -0.38150  -0.37614
 Alpha  occ. eigenvalues --   -0.36391  -0.35209  -0.34935  -0.33269  -0.28325
 Alpha  occ. eigenvalues --   -0.26884  -0.25008  -0.24868  -0.22888  -0.16133
 Alpha virt. eigenvalues --   -0.01392   0.01284   0.01744   0.03397   0.05968
 Alpha virt. eigenvalues --    0.06950   0.10059   0.12358   0.12775   0.13252
 Alpha virt. eigenvalues --    0.13551   0.13776   0.15077   0.16117   0.17286
 Alpha virt. eigenvalues --    0.17796   0.18714   0.18928   0.20768   0.22799
 Alpha virt. eigenvalues --    0.24348   0.24940   0.25548   0.28044   0.30766
 Alpha virt. eigenvalues --    0.31813   0.32500   0.36488   0.36583   0.37801
 Alpha virt. eigenvalues --    0.39039   0.40700   0.43400   0.46098   0.48759
 Alpha virt. eigenvalues --    0.51409   0.52234   0.52719   0.53205   0.54138
 Alpha virt. eigenvalues --    0.54918   0.55646   0.56417   0.56726   0.58259
 Alpha virt. eigenvalues --    0.58717   0.59743   0.60772   0.62470   0.63135
 Alpha virt. eigenvalues --    0.64621   0.65480   0.66814   0.68440   0.69240
 Alpha virt. eigenvalues --    0.71964   0.72960   0.73945   0.75813   0.76920
 Alpha virt. eigenvalues --    0.77889   0.78191   0.80517   0.81529   0.82072
 Alpha virt. eigenvalues --    0.82369   0.83136   0.83499   0.83935   0.84226
 Alpha virt. eigenvalues --    0.85761   0.86486   0.87216   0.89311   0.89856
 Alpha virt. eigenvalues --    0.91507   0.92307   0.92549   0.93705   0.95769
 Alpha virt. eigenvalues --    0.96913   0.99160   1.00053   1.01391   1.02306
 Alpha virt. eigenvalues --    1.03961   1.04653   1.06045   1.08853   1.09557
 Alpha virt. eigenvalues --    1.12050   1.14941   1.19829   1.23179   1.25053
 Alpha virt. eigenvalues --    1.26775   1.27547   1.30131   1.31064   1.33344
 Alpha virt. eigenvalues --    1.34456   1.35355   1.38386   1.39716   1.41649
 Alpha virt. eigenvalues --    1.43584   1.47424   1.50140   1.52798   1.56930
 Alpha virt. eigenvalues --    1.58638   1.60002   1.67703   1.68736   1.69745
 Alpha virt. eigenvalues --    1.72680   1.73592   1.74474   1.77443   1.78161
 Alpha virt. eigenvalues --    1.78929   1.82299   1.83657   1.84076   1.87387
 Alpha virt. eigenvalues --    1.88003   1.89549   1.92914   1.93365   1.94192
 Alpha virt. eigenvalues --    1.96988   1.97698   1.99154   2.02386   2.02946
 Alpha virt. eigenvalues --    2.05153   2.07852   2.09651   2.10540   2.11447
 Alpha virt. eigenvalues --    2.12002   2.12827   2.14179   2.16151   2.17977
 Alpha virt. eigenvalues --    2.19837   2.21617   2.22467   2.26507   2.28468
 Alpha virt. eigenvalues --    2.30478   2.31747   2.32489   2.32769   2.35888
 Alpha virt. eigenvalues --    2.36878   2.38359   2.40019   2.42472   2.43636
 Alpha virt. eigenvalues --    2.46002   2.46099   2.49463   2.50654   2.51883
 Alpha virt. eigenvalues --    2.53000   2.54661   2.55259   2.55666   2.58336
 Alpha virt. eigenvalues --    2.58927   2.60100   2.64672   2.67356   2.67596
 Alpha virt. eigenvalues --    2.68069   2.69745   2.71303   2.74748   2.77192
 Alpha virt. eigenvalues --    2.80118   2.82123   2.84409   2.85355   2.87515
 Alpha virt. eigenvalues --    2.91334   2.91526   2.98159   3.07147   3.11200
 Alpha virt. eigenvalues --    3.11636   3.16789   3.17922   3.20603   3.25077
 Alpha virt. eigenvalues --    3.30728   3.31364   3.40874   3.41319   3.43832
 Alpha virt. eigenvalues --    3.45700   3.48097   3.51124   3.60785   3.74443
 Alpha virt. eigenvalues --    3.94664   4.02452   4.08004   4.13600   4.16698
 Alpha virt. eigenvalues --    4.23940   4.31492   4.37854   4.44709   4.50786
 Alpha virt. eigenvalues --    4.52350   4.54254   4.58964   4.84568
  Beta  occ. eigenvalues --  -88.89749 -19.18497 -14.31970 -10.24554 -10.22434
  Beta  occ. eigenvalues --  -10.21099 -10.20864 -10.20673 -10.20025 -10.19895
  Beta  occ. eigenvalues --  -10.19393 -10.18779 -10.18424 -10.17678  -7.95890
  Beta  occ. eigenvalues --   -5.92264  -5.91901  -5.91615  -1.06346  -0.94102
  Beta  occ. eigenvalues --   -0.85160  -0.78766  -0.77686  -0.75352  -0.71107
  Beta  occ. eigenvalues --   -0.69547  -0.67715  -0.61251  -0.58223  -0.57012
  Beta  occ. eigenvalues --   -0.53869  -0.51147  -0.48709  -0.47948  -0.46538
  Beta  occ. eigenvalues --   -0.43942  -0.42467  -0.41456  -0.41074  -0.40810
  Beta  occ. eigenvalues --   -0.40041  -0.38935  -0.38654  -0.37540  -0.37390
  Beta  occ. eigenvalues --   -0.35374  -0.34927  -0.34305  -0.33118  -0.27011
  Beta  occ. eigenvalues --   -0.26829  -0.24144  -0.23481  -0.22346
  Beta virt. eigenvalues --   -0.07673  -0.00648   0.02324   0.03202   0.03903
  Beta virt. eigenvalues --    0.06035   0.07471   0.10307   0.12707   0.13067
  Beta virt. eigenvalues --    0.13408   0.13658   0.14145   0.15134   0.16143
  Beta virt. eigenvalues --    0.17344   0.17933   0.18837   0.19063   0.21187
  Beta virt. eigenvalues --    0.22988   0.24515   0.25166   0.25935   0.28597
  Beta virt. eigenvalues --    0.30966   0.31983   0.32657   0.36616   0.36961
  Beta virt. eigenvalues --    0.37928   0.39626   0.40984   0.43599   0.46334
  Beta virt. eigenvalues --    0.48813   0.51841   0.52582   0.53265   0.53740
  Beta virt. eigenvalues --    0.54236   0.55245   0.55756   0.56667   0.56933
  Beta virt. eigenvalues --    0.58398   0.59184   0.60058   0.61129   0.62720
  Beta virt. eigenvalues --    0.64455   0.65152   0.66051   0.67103   0.68598
  Beta virt. eigenvalues --    0.69896   0.71670   0.73144   0.74266   0.75872
  Beta virt. eigenvalues --    0.76971   0.78095   0.78403   0.80688   0.81691
  Beta virt. eigenvalues --    0.82305   0.82509   0.83367   0.83765   0.84044
  Beta virt. eigenvalues --    0.84304   0.85802   0.86624   0.87391   0.89412
  Beta virt. eigenvalues --    0.89959   0.91615   0.92516   0.92896   0.93830
  Beta virt. eigenvalues --    0.96131   0.97254   0.99628   1.00407   1.01758
  Beta virt. eigenvalues --    1.02629   1.04068   1.04867   1.06317   1.08963
  Beta virt. eigenvalues --    1.09795   1.12280   1.15210   1.19975   1.23325
  Beta virt. eigenvalues --    1.25448   1.27191   1.27968   1.30570   1.31250
  Beta virt. eigenvalues --    1.33612   1.34658   1.35493   1.39001   1.39986
  Beta virt. eigenvalues --    1.42263   1.43973   1.47731   1.51099   1.53806
  Beta virt. eigenvalues --    1.57189   1.58915   1.60224   1.68219   1.68964
  Beta virt. eigenvalues --    1.70054   1.72817   1.73823   1.74658   1.77813
  Beta virt. eigenvalues --    1.78503   1.79101   1.82663   1.83756   1.85213
  Beta virt. eigenvalues --    1.87836   1.88244   1.89914   1.93045   1.93632
  Beta virt. eigenvalues --    1.94277   1.97441   1.98006   1.99502   2.02768
  Beta virt. eigenvalues --    2.02908   2.05115   2.07844   2.09852   2.10553
  Beta virt. eigenvalues --    2.11638   2.12129   2.12916   2.14250   2.16225
  Beta virt. eigenvalues --    2.18181   2.20198   2.22111   2.23787   2.28118
  Beta virt. eigenvalues --    2.28848   2.30838   2.31840   2.33018   2.33352
  Beta virt. eigenvalues --    2.36494   2.37577   2.38593   2.40214   2.42640
  Beta virt. eigenvalues --    2.43964   2.46137   2.46533   2.49799   2.50963
  Beta virt. eigenvalues --    2.52165   2.53160   2.55023   2.55742   2.56016
  Beta virt. eigenvalues --    2.58500   2.59173   2.60432   2.64750   2.67625
  Beta virt. eigenvalues --    2.67875   2.68322   2.70039   2.71490   2.74804
  Beta virt. eigenvalues --    2.77248   2.80198   2.82244   2.85074   2.85458
  Beta virt. eigenvalues --    2.87523   2.91404   2.92035   2.98412   3.07212
  Beta virt. eigenvalues --    3.11319   3.11897   3.16902   3.17935   3.20583
  Beta virt. eigenvalues --    3.25129   3.30887   3.31473   3.40837   3.41446
  Beta virt. eigenvalues --    3.43785   3.45777   3.48102   3.51167   3.60903
  Beta virt. eigenvalues --    3.74616   3.94974   4.02637   4.08322   4.14436
  Beta virt. eigenvalues --    4.16771   4.24169   4.32528   4.38277   4.45020
  Beta virt. eigenvalues --    4.50871   4.52776   4.54207   4.59073   4.84834
          Condensed to atoms (all electrons):
               1          2          3          4          5          6
     1  C    4.984996   0.371911  -0.010711   0.431068  -0.047591   0.084247
     2  H    0.371911   0.624078   0.003843  -0.036610  -0.005232  -0.028219
     3  C   -0.010711   0.003843   4.901027  -0.046903   0.000409  -0.004891
     4  C    0.431068  -0.036610  -0.046903   4.928354   0.366443  -0.026560
     5  H   -0.047591  -0.005232   0.000409   0.366443   0.628447   0.001084
     6  C    0.084247  -0.028219  -0.004891  -0.026560   0.001084   5.411563
     7  C    0.435495  -0.037458   0.552509  -0.026971   0.004616  -0.025943
     8  C   -0.009225   0.003533  -0.061478   0.577203  -0.035714  -0.004953
     9  C    0.001272  -0.000090  -0.000036  -0.000118   0.000003  -0.089683
    10  H   -0.000014   0.000001   0.000003   0.000003  -0.000000   0.007886
    11  C    0.007447  -0.000166   0.329321   0.000072   0.000007  -0.000052
    12  H   -0.000098   0.000005  -0.034254  -0.000006  -0.000000  -0.000003
    13  H   -0.000295   0.000000  -0.030668   0.000067   0.000000   0.000024
    14  H    0.000102  -0.000008  -0.024782   0.000005  -0.000000  -0.000001
    15  C    0.007385  -0.000157   0.009677  -0.062857  -0.011481  -0.000033
    16  H   -0.000309  -0.000000  -0.000217   0.000997   0.000194   0.000019
    17  H   -0.000106   0.000005   0.000005   0.000915   0.000129  -0.000003
    18  H    0.000066  -0.000007  -0.000141  -0.005484   0.006267  -0.000001
    19  C    0.000250  -0.000004   0.000002   0.000002  -0.000004  -0.049460
    20  H   -0.000003   0.000001   0.000000   0.000001  -0.000000   0.003386
    21  S   -0.012307   0.002912   0.000110   0.001531   0.000125   0.223125
    22  N   -0.016684   0.001293   0.002323  -0.000948  -0.000096   0.504180
    23  C   -0.061239   0.000967   0.407425  -0.009738   0.006169   0.001477
    24  O   -0.000088   0.000002  -0.081602   0.003833  -0.000059   0.000001
    25  H   -0.000057  -0.000000  -0.022216  -0.000073   0.000006   0.000000
    26  H   -0.044738  -0.005248  -0.034485   0.004385  -0.000185   0.001069
               7          8          9         10         11         12
     1  C    0.435495  -0.009225   0.001272  -0.000014   0.007447  -0.000098
     2  H   -0.037458   0.003533  -0.000090   0.000001  -0.000166   0.000005
     3  C    0.552509  -0.061478  -0.000036   0.000003   0.329321  -0.034254
     4  C   -0.026971   0.577203  -0.000118   0.000003   0.000072  -0.000006
     5  H    0.004616  -0.035714   0.000003  -0.000000   0.000007  -0.000000
     6  C   -0.025943  -0.004953  -0.089683   0.007886  -0.000052  -0.000003
     7  C    4.923589  -0.041747  -0.000135   0.000003  -0.057556   0.000159
     8  C   -0.041747   4.783401  -0.000035   0.000004   0.007796  -0.000019
     9  C   -0.000135  -0.000035   4.752480   0.381231  -0.000002   0.000000
    10  H    0.000003   0.000004   0.381231   0.606602   0.000000   0.000000
    11  C   -0.057556   0.007796  -0.000002   0.000000   5.085292   0.370769
    12  H    0.000159  -0.000019   0.000000   0.000000   0.370769   0.610476
    13  H    0.000039  -0.000258   0.000000  -0.000000   0.368828  -0.042571
    14  H   -0.002535  -0.000132   0.000000   0.000000   0.374179  -0.024956
    15  C   -0.000196   0.347726  -0.000001   0.000000  -0.000168   0.000004
    16  H    0.000064  -0.025488   0.000000  -0.000000  -0.000002   0.000001
    17  H   -0.000014  -0.027058  -0.000000   0.000000   0.000007  -0.000003
    18  H    0.000005  -0.026463   0.000000  -0.000000   0.000001   0.000000
    19  C    0.000001   0.000002   0.566148  -0.057381   0.000000   0.000000
    20  H    0.000001   0.000000  -0.019555  -0.001044   0.000000   0.000000
    21  S    0.001390   0.000091  -0.106536   0.005354   0.000003   0.000000
    22  N   -0.001657   0.002466   0.419080  -0.043782  -0.000054   0.000000
    23  C    0.011789   0.450499   0.000064  -0.000002  -0.056395  -0.002877
    24  O    0.004008  -0.075726  -0.000000  -0.000000  -0.008657   0.001315
    25  H    0.000206   0.008875   0.000000  -0.000000   0.014651   0.002410
    26  H    0.364511   0.000613   0.000003  -0.000000  -0.010984   0.000138
              13         14         15         16         17         18
     1  C   -0.000295   0.000102   0.007385  -0.000309  -0.000106   0.000066
     2  H    0.000000  -0.000008  -0.000157  -0.000000   0.000005  -0.000007
     3  C   -0.030668  -0.024782   0.009677  -0.000217   0.000005  -0.000141
     4  C    0.000067   0.000005  -0.062857   0.000997   0.000915  -0.005484
     5  H    0.000000  -0.000000  -0.011481   0.000194   0.000129   0.006267
     6  C    0.000024  -0.000001  -0.000033   0.000019  -0.000003  -0.000001
     7  C    0.000039  -0.002535  -0.000196   0.000064  -0.000014   0.000005
     8  C   -0.000258  -0.000132   0.347726  -0.025488  -0.027058  -0.026463
     9  C    0.000000   0.000000  -0.000001   0.000000  -0.000000   0.000000
    10  H   -0.000000   0.000000   0.000000  -0.000000   0.000000  -0.000000
    11  C    0.368828   0.374179  -0.000168  -0.000002   0.000007   0.000001
    12  H   -0.042571  -0.024956   0.000004   0.000001  -0.000003   0.000000
    13  H    0.600569  -0.025182  -0.000002  -0.000001   0.000001  -0.000000
    14  H   -0.025182   0.567516   0.000002  -0.000000   0.000000  -0.000000
    15  C   -0.000002   0.000002   5.012404   0.373958   0.375416   0.369469
    16  H   -0.000001  -0.000000   0.373958   0.581921  -0.033617  -0.028535
    17  H    0.000001   0.000000   0.375416  -0.033617   0.593159  -0.029624
    18  H   -0.000000  -0.000000   0.369469  -0.028535  -0.029624   0.605650
    19  C   -0.000000  -0.000000  -0.000000  -0.000000   0.000000  -0.000000
    20  H   -0.000000  -0.000000   0.000000  -0.000000   0.000000   0.000000
    21  S   -0.000000  -0.000000   0.000002  -0.000000   0.000000  -0.000000
    22  N    0.000027  -0.000000  -0.000060   0.000027   0.000001  -0.000001
    23  C   -0.001871   0.003259  -0.055407  -0.004920  -0.006224   0.004725
    24  O    0.000534   0.000337  -0.003891   0.003465   0.003463   0.000323
    25  H    0.003230  -0.000395  -0.000417  -0.000032  -0.000073  -0.000003
    26  H    0.000234   0.005967   0.000009   0.000000  -0.000000  -0.000000
              19         20         21         22         23         24
     1  C    0.000250  -0.000003  -0.012307  -0.016684  -0.061239  -0.000088
     2  H   -0.000004   0.000001   0.002912   0.001293   0.000967   0.000002
     3  C    0.000002   0.000000   0.000110   0.002323   0.407425  -0.081602
     4  C    0.000002   0.000001   0.001531  -0.000948  -0.009738   0.003833
     5  H   -0.000004  -0.000000   0.000125  -0.000096   0.006169  -0.000059
     6  C   -0.049460   0.003386   0.223125   0.504180   0.001477   0.000001
     7  C    0.000001   0.000001   0.001390  -0.001657   0.011789   0.004008
     8  C    0.000002   0.000000   0.000091   0.002466   0.450499  -0.075726
     9  C    0.566148  -0.019555  -0.106536   0.419080   0.000064  -0.000000
    10  H   -0.057381  -0.001044   0.005354  -0.043782  -0.000002  -0.000000
    11  C    0.000000   0.000000   0.000003  -0.000054  -0.056395  -0.008657
    12  H    0.000000   0.000000   0.000000   0.000000  -0.002877   0.001315
    13  H   -0.000000  -0.000000  -0.000000   0.000027  -0.001871   0.000534
    14  H   -0.000000  -0.000000  -0.000000  -0.000000   0.003259   0.000337
    15  C   -0.000000   0.000000   0.000002  -0.000060  -0.055407  -0.003891
    16  H   -0.000000  -0.000000  -0.000000   0.000027  -0.004920   0.003465
    17  H    0.000000   0.000000   0.000000   0.000001  -0.006224   0.003463
    18  H   -0.000000   0.000000  -0.000000  -0.000001   0.004725   0.000323
    19  C    5.230675   0.356943   0.319716  -0.061641  -0.000002   0.000000
    20  H    0.356943   0.562810  -0.032779   0.004363  -0.000000   0.000000
    21  S    0.319716  -0.032779  15.488715  -0.088640  -0.000070  -0.000000
    22  N   -0.061641   0.004363  -0.088640   6.667441  -0.000208  -0.000019
    23  C   -0.000002  -0.000000  -0.000070  -0.000208   4.797935   0.300861
    24  O    0.000000   0.000000  -0.000000  -0.000019   0.300861   8.105428
    25  H   -0.000000   0.000000  -0.000000  -0.000001  -0.027777   0.298110
    26  H   -0.000008  -0.000000   0.000343  -0.000109   0.004568  -0.000057
              25         26
     1  C   -0.000057  -0.044738
     2  H   -0.000000  -0.005248
     3  C   -0.022216  -0.034485
     4  C   -0.000073   0.004385
     5  H    0.000006  -0.000185
     6  C    0.000000   0.001069
     7  C    0.000206   0.364511
     8  C    0.008875   0.000613
     9  C    0.000000   0.000003
    10  H   -0.000000  -0.000000
    11  C    0.014651  -0.010984
    12  H    0.002410   0.000138
    13  H    0.003230   0.000234
    14  H   -0.000395   0.005967
    15  C   -0.000417   0.000009
    16  H   -0.000032   0.000000
    17  H   -0.000073  -0.000000
    18  H   -0.000003  -0.000000
    19  C   -0.000000  -0.000008
    20  H    0.000000  -0.000000
    21  S   -0.000000   0.000343
    22  N   -0.000001  -0.000109
    23  C   -0.027777   0.004568
    24  O    0.298110  -0.000057
    25  H    0.400637  -0.000014
    26  H   -0.000014   0.628310
          Atomic-Atomic Spin Densities.
               1          2          3          4          5          6
     1  C   -0.102733   0.009288  -0.000933   0.022736   0.000409  -0.076466
     2  H    0.009288   0.020042   0.000045  -0.000808  -0.000011  -0.015987
     3  C   -0.000933   0.000045  -0.130157  -0.001167  -0.000047   0.001213
     4  C    0.022736  -0.000808  -0.001167   0.268552   0.001474  -0.034248
     5  H    0.000409  -0.000011  -0.000047   0.001474  -0.013212   0.000362
     6  C   -0.076466  -0.015987   0.001213  -0.034248   0.000362   0.771828
     7  C    0.022614  -0.001181  -0.020792   0.007477   0.000052  -0.035809
     8  C   -0.000336   0.000031   0.001299  -0.017571   0.000065   0.001020
     9  C   -0.000688  -0.000045   0.000035  -0.000396   0.000002  -0.010669
    10  H    0.000010   0.000000  -0.000002   0.000008  -0.000000   0.000748
    11  C   -0.000046  -0.000002   0.001541   0.000011  -0.000000  -0.000012
    12  H   -0.000010  -0.000000   0.002275   0.000006   0.000000   0.000001
    13  H    0.000003   0.000000   0.002301  -0.000003  -0.000000  -0.000006
    14  H    0.000003  -0.000001   0.000353   0.000001   0.000000   0.000004
    15  C   -0.000048  -0.000002  -0.000044   0.000186   0.000161  -0.000012
    16  H    0.000004   0.000000   0.000008   0.000078  -0.000007  -0.000005
    17  H   -0.000011  -0.000000  -0.000023   0.000106   0.000005   0.000001
    18  H    0.000005  -0.000000  -0.000002  -0.000130  -0.000071   0.000001
    19  C    0.000019  -0.000007  -0.000002   0.000023   0.000000   0.001561
    20  H    0.000003   0.000000  -0.000000   0.000001  -0.000000   0.000474
    21  S    0.006862   0.002478  -0.000049   0.002040  -0.000033  -0.081869
    22  N    0.003503   0.000161  -0.000383   0.003203  -0.000020  -0.032264
    23  C   -0.001245   0.000059   0.018226  -0.011815  -0.000007   0.002273
    24  O    0.000006   0.000000  -0.000456   0.000281   0.000000  -0.000011
    25  H    0.000000   0.000000   0.000307  -0.000005  -0.000000  -0.000000
    26  H    0.000417   0.000035   0.000001   0.000046   0.000003   0.000231
               7          8          9         10         11         12
     1  C    0.022614  -0.000336  -0.000688   0.000010  -0.000046  -0.000010
     2  H   -0.001181   0.000031  -0.000045   0.000000  -0.000002  -0.000000
     3  C   -0.020792   0.001299   0.000035  -0.000002   0.001541   0.002275
     4  C    0.007477  -0.017571  -0.000396   0.000008   0.000011   0.000006
     5  H    0.000052   0.000065   0.000002  -0.000000  -0.000000   0.000000
     6  C   -0.035809   0.001020  -0.010669   0.000748  -0.000012   0.000001
     7  C    0.298270  -0.001205  -0.000434   0.000008   0.000229   0.000112
     8  C   -0.001205  -0.130519   0.000026  -0.000001   0.000009  -0.000019
     9  C   -0.000434   0.000026   0.098375  -0.006663  -0.000000   0.000000
    10  H    0.000008  -0.000001  -0.006663   0.002515   0.000000  -0.000000
    11  C    0.000229   0.000009  -0.000000   0.000000   0.008569  -0.000598
    12  H    0.000112  -0.000019   0.000000  -0.000000  -0.000598  -0.006939
    13  H    0.000095   0.000007  -0.000001   0.000000  -0.000319   0.001803
    14  H   -0.000131  -0.000002   0.000000  -0.000000  -0.000297   0.000042
    15  C    0.000011   0.003227  -0.000000   0.000000  -0.000001  -0.000000
    16  H   -0.000003   0.002205  -0.000000   0.000000   0.000000  -0.000000
    17  H    0.000007   0.002273   0.000000  -0.000000  -0.000000   0.000000
    18  H    0.000000   0.000339   0.000000  -0.000000  -0.000000   0.000000
    19  C    0.000029  -0.000001  -0.012353   0.002648   0.000000  -0.000000
    20  H    0.000001  -0.000000  -0.003368   0.000425   0.000000  -0.000000
    21  S    0.002563  -0.000030  -0.018249   0.000562   0.000001  -0.000000
    22  N    0.002666  -0.000385  -0.007673   0.001170   0.000005  -0.000000
    23  C   -0.012548   0.013519   0.000067  -0.000003  -0.001735  -0.000309
    24  O    0.000263  -0.000387  -0.000000   0.000000   0.000166   0.000012
    25  H    0.000010  -0.000123  -0.000000   0.000000  -0.000008  -0.000002
    26  H    0.001748  -0.000051   0.000001  -0.000000   0.000186   0.000005
              13         14         15         16         17         18
     1  C    0.000003   0.000003  -0.000048   0.000004  -0.000011   0.000005
     2  H    0.000000  -0.000001  -0.000002   0.000000  -0.000000  -0.000000
     3  C    0.002301   0.000353  -0.000044   0.000008  -0.000023  -0.000002
     4  C   -0.000003   0.000001   0.000186   0.000078   0.000106  -0.000130
     5  H   -0.000000   0.000000   0.000161  -0.000007   0.000005  -0.000071
     6  C   -0.000006   0.000004  -0.000012  -0.000005   0.000001   0.000001
     7  C    0.000095  -0.000131   0.000011  -0.000003   0.000007   0.000000
     8  C    0.000007  -0.000002   0.003227   0.002205   0.002273   0.000339
     9  C   -0.000001   0.000000  -0.000000  -0.000000   0.000000   0.000000
    10  H    0.000000  -0.000000   0.000000   0.000000  -0.000000  -0.000000
    11  C   -0.000319  -0.000297  -0.000001   0.000000  -0.000000  -0.000000
    12  H    0.001803   0.000042  -0.000000  -0.000000   0.000000   0.000000
    13  H   -0.007908   0.000178   0.000000   0.000000  -0.000000   0.000000
    14  H    0.000178  -0.000688  -0.000000  -0.000000   0.000000   0.000000
    15  C    0.000000  -0.000000   0.007873  -0.000689  -0.001030  -0.000294
    16  H    0.000000  -0.000000  -0.000689  -0.007220   0.001616   0.000151
    17  H   -0.000000   0.000000  -0.001030   0.001616  -0.006431   0.000067
    18  H    0.000000   0.000000  -0.000294   0.000151   0.000067  -0.000632
    19  C    0.000000  -0.000000   0.000000   0.000000  -0.000000  -0.000000
    20  H    0.000000  -0.000000   0.000000   0.000000  -0.000000  -0.000000
    21  S    0.000000  -0.000000   0.000001   0.000000  -0.000000  -0.000000
    22  N    0.000003  -0.000000   0.000008   0.000004  -0.000000  -0.000000
    23  C   -0.000349   0.000039  -0.001723  -0.000339  -0.000299   0.000047
    24  O    0.000013  -0.000001   0.000134   0.000005   0.000013  -0.000002
    25  H    0.000009  -0.000001   0.000005   0.000000   0.000002  -0.000000
    26  H   -0.000008  -0.000087  -0.000000  -0.000000   0.000000   0.000000
              19         20         21         22         23         24
     1  C    0.000019   0.000003   0.006862   0.003503  -0.001245   0.000006
     2  H   -0.000007   0.000000   0.002478   0.000161   0.000059   0.000000
     3  C   -0.000002  -0.000000  -0.000049  -0.000383   0.018226  -0.000456
     4  C    0.000023   0.000001   0.002040   0.003203  -0.011815   0.000281
     5  H    0.000000  -0.000000  -0.000033  -0.000020  -0.000007   0.000000
     6  C    0.001561   0.000474  -0.081869  -0.032264   0.002273  -0.000011
     7  C    0.000029   0.000001   0.002563   0.002666  -0.012548   0.000263
     8  C   -0.000001  -0.000000  -0.000030  -0.000385   0.013519  -0.000387
     9  C   -0.012353  -0.003368  -0.018249  -0.007673   0.000067  -0.000000
    10  H    0.002648   0.000425   0.000562   0.001170  -0.000003   0.000000
    11  C    0.000000   0.000000   0.000001   0.000005  -0.001735   0.000166
    12  H   -0.000000  -0.000000  -0.000000  -0.000000  -0.000309   0.000012
    13  H    0.000000   0.000000   0.000000   0.000003  -0.000349   0.000013
    14  H   -0.000000  -0.000000  -0.000000  -0.000000   0.000039  -0.000001
    15  C    0.000000   0.000000   0.000001   0.000008  -0.001723   0.000134
    16  H    0.000000   0.000000   0.000000   0.000004  -0.000339   0.000005
    17  H   -0.000000  -0.000000  -0.000000  -0.000000  -0.000299   0.000013
    18  H   -0.000000  -0.000000  -0.000000  -0.000000   0.000047  -0.000002
    19  C   -0.012678  -0.000868   0.007217   0.001672  -0.000002   0.000000
    20  H   -0.000868   0.007858  -0.001213  -0.000182  -0.000000   0.000000
    21  S    0.007217  -0.001213   0.126230   0.004077  -0.000079   0.000000
    22  N    0.001672  -0.000182   0.004077   0.009359  -0.001153   0.000010
    23  C   -0.000002  -0.000000  -0.000079  -0.001153   0.311552  -0.043341
    24  O    0.000000   0.000000   0.000000   0.000010  -0.043341   0.093776
    25  H    0.000000   0.000000   0.000000   0.000000  -0.000311   0.000034
    26  H    0.000000  -0.000000  -0.000031  -0.000011  -0.000008   0.000001
              25         26
     1  C    0.000000   0.000417
     2  H    0.000000   0.000035
     3  C    0.000307   0.000001
     4  C   -0.000005   0.000046
     5  H   -0.000000   0.000003
     6  C   -0.000000   0.000231
     7  C    0.000010   0.001748
     8  C   -0.000123  -0.000051
     9  C   -0.000000   0.000001
    10  H    0.000000  -0.000000
    11  C   -0.000008   0.000186
    12  H   -0.000002   0.000005
    13  H    0.000009  -0.000008
    14  H   -0.000001  -0.000087
    15  C    0.000005  -0.000000
    16  H    0.000000  -0.000000
    17  H    0.000002   0.000000
    18  H   -0.000000   0.000000
    19  C    0.000000   0.000000
    20  H    0.000000  -0.000000
    21  S    0.000000  -0.000031
    22  N    0.000000  -0.000011
    23  C   -0.000311  -0.000008
    24  O    0.000034   0.000001
    25  H   -0.001621   0.000000
    26  H    0.000000  -0.014504
 Mulliken charges and spin densities:
               1          2
     1  C   -0.120776  -0.116635
     2  H    0.104649   0.014095
     3  C    0.145727  -0.126454
     4  C   -0.098608   0.240085
     5  H    0.086464  -0.010875
     6  C   -0.008259   0.492359
     7  C   -0.104171   0.264049
     8  C    0.126089  -0.126609
     9  C    0.095909   0.037965
    10  H    0.101138   0.001425
    11  C   -0.424337   0.007698
    12  H    0.119511  -0.003620
    13  H    0.127295  -0.004179
    14  H    0.126627  -0.000589
    15  C   -0.361382   0.007762
    16  H    0.132475  -0.004192
    17  H    0.123622  -0.003705
    18  H    0.103754  -0.000522
    19  C   -0.305238  -0.012740
    20  H    0.125875   0.003131
    21  S    0.196916   0.050477
    22  N   -0.387302  -0.016229
    23  C    0.236992   0.270517
    24  O   -0.551580   0.050516
    25  H    0.322933  -0.001703
    26  H    0.085678  -0.012027
 Sum of Mulliken charges =  -0.00000   1.00000
 Mulliken charges and spin densities with hydrogens summed into heavy atoms:
               1          2
     1  C   -0.016127  -0.102540
     3  C    0.145727  -0.126454
     4  C   -0.012144   0.229210
     6  C   -0.008259   0.492359
     7  C   -0.018493   0.252023
     8  C    0.126089  -0.126609
     9  C    0.197047   0.039390
    11  C   -0.050904  -0.000690
    15  C   -0.001532  -0.000658
    19  C   -0.179363  -0.009609
    21  S    0.196916   0.050477
    22  N   -0.387302  -0.016229
    23  C    0.236992   0.270517
    24  O   -0.228647   0.048813
 APT charges:
               1
     1  C   -0.884633
     2  H    0.842069
     3  C   -0.060694
     4  C   -0.309765
     5  H    0.524632
     6  C    0.687547
     7  C   -0.338295
     8  C   -0.253904
     9  C   -0.538410
    10  H   -0.064655
    11  C   -1.213311
    12  H    0.803289
    13  H   -0.160557
    14  H    0.715124
    15  C   -1.005207
    16  H   -0.211079
    17  H    0.827653
    18  H    0.516693
    19  C   -0.219785
    20  H    0.700081
    21  S    0.550206
    22  N   -1.197423
    23  C   -0.332106
    24  O   -0.722448
    25  H    0.634641
    26  H    0.710336
 Sum of APT charges =  -0.00000
 APT charges with hydrogens summed into heavy atoms:
               1
     1  C   -0.042563
     3  C   -0.060694
     4  C    0.214868
     6  C    0.687547
     7  C    0.372042
     8  C   -0.253904
     9  C   -0.603065
    11  C    0.144545
    15  C    0.128060
    19  C    0.480296
    21  S    0.550206
    22  N   -1.197423
    23  C   -0.332106
    24  O   -0.087807
 Electronic spatial extent (au):  <R**2>=           9710.5577
 Charge=             -0.0000 electrons
 Dipole moment (field-independent basis, Debye):
    X=             -0.1190    Y=             -1.8029    Z=             -0.7681  Tot=              1.9633
 Quadrupole moment (field-independent basis, Debye-Ang):
   XX=            -87.8972   YY=            -72.2697   ZZ=            -87.3947
   XY=             -3.8780   XZ=             -0.4094   YZ=              0.8156
 Traceless Quadrupole moment (field-independent basis, Debye-Ang):
   XX=             -5.3766   YY=             10.2508   ZZ=             -4.8742
   XY=             -3.8780   XZ=             -0.4094   YZ=              0.8156
 Octapole moment (field-independent basis, Debye-Ang**2):
  XXX=           -889.6247  YYY=            383.1448  ZZZ=           -325.8070  XYY=           -269.2056
  XXY=            139.1178  XXZ=           -110.4225  XZZ=           -292.6938  YZZ=            168.6490
  YYZ=           -133.9817  XYZ=             -0.6995
 Hexadecapole moment (field-independent basis, Debye-Ang**3):
 XXXX=          -6971.0421 YYYY=          -3568.0814 ZZZZ=          -2098.1069 XXXY=           1114.8176
 XXXZ=           -871.4537 YYYX=           1109.9158 YYYZ=           1014.8279 ZZZX=           -864.2030
 ZZZY=           1004.8586 XXYY=          -1770.5744 XXZZ=          -1511.8682 YYZZ=          -1107.6933
 XXYZ=            327.9587 YYXZ=           -381.2077 ZZXY=            435.8744
 N-N= 9.404133705828D+02 E-N=-4.119385016511D+03  KE= 9.479056437319D+02
  Exact polarizability:       0.000       0.000       0.000       0.000       0.000       0.000
 Approx polarizability:     268.743      65.842     258.281     -22.278     -29.710     200.682
                          Isotropic Fermi Contact Couplings
        Atom                 a.u.       MegaHertz       Gauss      10(-4) cm-1
     1  C(13)              0.00778       8.74809       3.12154       2.91805
     2  H(1)               0.00947      42.35148      15.11206      14.12693
     3  C(13)             -0.01973     -22.18466      -7.91604      -7.40000
     4  C(13)              0.02637      29.64733      10.57890       9.88928
     5  H(1)              -0.00364     -16.28621      -5.81132      -5.43249
     6  C(13)              0.53641     603.03103     215.17647     201.14950
     7  C(13)              0.02862      32.17047      11.47922      10.73091
     8  C(13)             -0.01940     -21.81458      -7.78398      -7.27656
     9  C(13)              0.04753      53.43555      19.06713      17.82418
    10  H(1)               0.00025       1.11393       0.39748       0.37157
    11  C(13)              0.00250       2.80728       1.00171       0.93641
    12  H(1)              -0.00176      -7.84957      -2.80092      -2.61833
    13  H(1)              -0.00205      -9.17198      -3.27279      -3.05944
    14  H(1)              -0.00023      -1.03070      -0.36778      -0.34380
    15  C(13)              0.00251       2.81771       1.00543       0.93989
    16  H(1)              -0.00213      -9.51608      -3.39558      -3.17422
    17  H(1)              -0.00187      -8.37260      -2.98755      -2.79280
    18  H(1)              -0.00020      -0.90240      -0.32200      -0.30101
    19  C(13)             -0.00112      -1.25744      -0.44869      -0.41944
    20  H(1)               0.00148       6.60998       2.35861       2.20485
    21  S(33)              0.13293      45.65862      16.29213      15.23008
    22  N(14)              0.09085      29.35384      10.47418       9.79139
    23  C(13)              0.03094      34.78552      12.41234      11.60320
    24  O(17)              0.01361      -8.25056      -2.94401      -2.75209
    25  H(1)              -0.00094      -4.19948      -1.49848      -1.40079
    26  H(1)              -0.00399     -17.85426      -6.37085      -5.95554
 --------------------------------------------------------
       Center         ----  Spin Dipole Couplings  ----
                      3XX-RR        3YY-RR        3ZZ-RR
 --------------------------------------------------------
     1   Atom        0.012812     -0.014914      0.002102
     2   Atom        0.003875     -0.003796     -0.000079
     3   Atom        0.023730     -0.018565     -0.005165
     4   Atom       -0.058870      0.059861     -0.000991
     5   Atom       -0.014729      0.004462      0.010266
     6   Atom       -0.174630      0.118838      0.055792
     7   Atom       -0.064969      0.060076      0.004893
     8   Atom        0.019010     -0.022553      0.003543
     9   Atom       -0.016290      0.008168      0.008122
    10   Atom        0.002512     -0.001411     -0.001102
    11   Atom       -0.001245      0.000986      0.000259
    12   Atom       -0.001165      0.001710     -0.000545
    13   Atom       -0.001162      0.000023      0.001139
    14   Atom       -0.001448      0.001530     -0.000082
    15   Atom       -0.000094     -0.001552      0.001646
    16   Atom        0.000282     -0.000456      0.000173
    17   Atom       -0.000666     -0.001583      0.002248
    18   Atom        0.000132     -0.001504      0.001372
    19   Atom        0.016119     -0.001970     -0.014150
    20   Atom        0.000761      0.000528     -0.001289
    21   Atom        0.022177      0.081997     -0.104174
    22   Atom        0.016862      0.009628     -0.026490
    23   Atom       -0.070121      0.077079     -0.006958
    24   Atom       -0.073600      0.086410     -0.012809
    25   Atom       -0.006947      0.004205      0.002742
    26   Atom       -0.001087     -0.004616      0.005703
 --------------------------------------------------------
                        XY            XZ            YZ
 --------------------------------------------------------
     1   Atom        0.032006     -0.027412      0.043249
     2   Atom       -0.005748      0.005967     -0.000793
     3   Atom        0.046105     -0.041234      0.056586
     4   Atom       -0.113406      0.090216     -0.145017
     5   Atom       -0.000660      0.007669      0.009203
     6   Atom       -0.175570      0.122943     -0.242221
     7   Atom       -0.123012      0.098829     -0.163758
     8   Atom        0.052009     -0.035858      0.057377
     9   Atom       -0.014948      0.008664     -0.013610
    10   Atom       -0.002835      0.003540     -0.002335
    11   Atom        0.001341     -0.000685      0.003069
    12   Atom        0.000144     -0.000386      0.002038
    13   Atom        0.001159      0.000268      0.001914
    14   Atom        0.000808      0.000350      0.002327
    15   Atom        0.001044     -0.002918      0.001794
    16   Atom       -0.000341     -0.002299      0.001144
    17   Atom        0.000322     -0.001588      0.000404
    18   Atom        0.000066     -0.002274      0.000251
    19   Atom       -0.000018      0.016608     -0.029671
    20   Atom        0.000217      0.001097     -0.002883
    21   Atom        0.237394     -0.131100     -0.188413
    22   Atom        0.011094      0.017546     -0.084673
    23   Atom       -0.137665      0.113440     -0.190774
    24   Atom       -0.132643      0.103267     -0.172296
    25   Atom        0.003688      0.005090      0.009681
    26   Atom       -0.012569     -0.013736      0.000682
 --------------------------------------------------------


 ---------------------------------------------------------------------------------
              Anisotropic Spin Dipole Couplings in Principal Axis System
 ---------------------------------------------------------------------------------

       Atom             a.u.   MegaHertz   Gauss  10(-4) cm-1        Axes

              Baa    -0.0715    -9.599    -3.425    -3.202 -0.4469  0.6887 -0.5709
     1 C(13)  Bbb     0.0337     4.524     1.614     1.509  0.8786  0.4581 -0.1351
              Bcc     0.0378     5.075     1.811     1.693 -0.1685  0.5619  0.8098
 
              Baa    -0.0077    -4.104    -1.465    -1.369  0.5572  0.7490 -0.3587
     2 H(1)   Bbb    -0.0024    -1.306    -0.466    -0.436 -0.2407  0.5590  0.7935
              Bcc     0.0101     5.410     1.931     1.805  0.7948 -0.3558  0.4917
 
              Baa    -0.0998   -13.394    -4.779    -4.468 -0.4477  0.6680 -0.5944
     3 C(13)  Bbb     0.0451     6.054     2.160     2.019  0.0163  0.6707  0.7415
              Bcc     0.0547     7.340     2.619     2.448  0.8940  0.3223 -0.3111
 
              Baa    -0.1278   -17.155    -6.121    -5.722  0.8943  0.4190 -0.1570
     4 C(13)  Bbb    -0.1186   -15.909    -5.677    -5.307 -0.1278  0.5754  0.8078
              Bcc     0.2464    33.064    11.798    11.029 -0.4288  0.7024 -0.5681
 
              Baa    -0.0174    -9.285    -3.313    -3.097  0.9363  0.1599 -0.3127
     5 H(1)   Bbb    -0.0007    -0.361    -0.129    -0.120 -0.3013  0.8232 -0.4812
              Bcc     0.0181     9.646     3.442     3.218  0.1805  0.5448  0.8189
 
              Baa    -0.2572   -34.516   -12.316   -11.513  0.9183  0.3916 -0.0577
     6 C(13)  Bbb    -0.1522   -20.424    -7.288    -6.813 -0.1973  0.5791  0.7910
              Bcc     0.4094    54.940    19.604    18.326 -0.3432  0.7150 -0.6091
 
              Baa    -0.1406   -18.865    -6.732    -6.293  0.8067  0.5813  0.1063
     7 C(13)  Bbb    -0.1317   -17.679    -6.308    -5.897 -0.4120  0.4242  0.8064
              Bcc     0.2723    36.544    13.040    12.190 -0.4237  0.6943 -0.5817
 
              Baa    -0.1014   -13.603    -4.854    -4.537 -0.4641  0.7007 -0.5418
     8 C(13)  Bbb     0.0466     6.247     2.229     2.084 -0.5114  0.2875  0.8098
              Bcc     0.0548     7.356     2.625     2.454  0.7232  0.6530  0.2249
 
              Baa    -0.0235    -3.158    -1.127    -1.053  0.9144  0.3970 -0.0796
     9 C(13)  Bbb    -0.0046    -0.615    -0.220    -0.205 -0.1934  0.6010  0.7755
              Bcc     0.0281     3.773     1.346     1.259 -0.3557  0.6937 -0.6263
 
              Baa    -0.0037    -1.953    -0.697    -0.652 -0.1813  0.5888  0.7877
    10 H(1)   Bbb    -0.0027    -1.452    -0.518    -0.484  0.6236  0.6882 -0.3709
              Bcc     0.0064     3.405     1.215     1.136  0.7604 -0.4240  0.4919
 
              Baa    -0.0034    -0.456    -0.163    -0.152  0.5526 -0.5847  0.5939
    11 C(13)  Bbb    -0.0004    -0.051    -0.018    -0.017  0.8254  0.2852 -0.4873
              Bcc     0.0038     0.507     0.181     0.169  0.1155  0.7595  0.6402
 
              Baa    -0.0020    -1.043    -0.372    -0.348  0.4569 -0.4459  0.7697
    12 H(1)   Bbb    -0.0010    -0.511    -0.182    -0.170  0.8893  0.2462 -0.3853
              Bcc     0.0029     1.554     0.555     0.518 -0.0177  0.8605  0.5091
 
              Baa    -0.0021    -1.143    -0.408    -0.381  0.6834 -0.6534  0.3254
    13 H(1)   Bbb    -0.0006    -0.346    -0.124    -0.116  0.6922  0.4385 -0.5732
              Bcc     0.0028     1.489     0.531     0.497  0.2318  0.6170  0.7521
 
              Baa    -0.0019    -0.995    -0.355    -0.332  0.5610 -0.5548  0.6144
    14 H(1)   Bbb    -0.0015    -0.788    -0.281    -0.263  0.8086  0.2084 -0.5502
              Bcc     0.0033     1.783     0.636     0.595  0.1772  0.8054  0.5656
 
              Baa    -0.0039    -0.522    -0.186    -0.174 -0.5692  0.6455 -0.5093
    15 C(13)  Bbb    -0.0001    -0.009    -0.003    -0.003  0.6123  0.7462  0.2614
              Bcc     0.0040     0.531     0.189     0.177 -0.5487  0.1631  0.8199
 
              Baa    -0.0023    -1.218    -0.435    -0.406  0.6023 -0.3399  0.7223
    16 H(1)   Bbb    -0.0006    -0.310    -0.110    -0.103  0.4554  0.8895  0.0388
              Bcc     0.0029     1.528     0.545     0.510 -0.6557  0.3055  0.6905
 
              Baa    -0.0020    -1.041    -0.371    -0.347 -0.5467  0.7882 -0.2826
    17 H(1)   Bbb    -0.0010    -0.538    -0.192    -0.179  0.7374  0.6131  0.2835
              Bcc     0.0030     1.579     0.563     0.527 -0.3967  0.0534  0.9164
 
              Baa    -0.0018    -0.943    -0.336    -0.315 -0.6102  0.6213 -0.4915
    18 H(1)   Bbb    -0.0013    -0.719    -0.256    -0.240  0.5110  0.7828  0.3551
              Bcc     0.0031     1.662     0.593     0.554 -0.6054  0.0345  0.7952
 
              Baa    -0.0413    -5.544    -1.978    -1.849 -0.2248  0.5866  0.7781
    19 C(13)  Bbb     0.0103     1.379     0.492     0.460  0.7366  0.6250 -0.2584
              Bcc     0.0310     4.165     1.486     1.389  0.6379 -0.5150  0.5726
 
              Baa    -0.0036    -1.941    -0.693    -0.648 -0.2261  0.5623  0.7955
    20 H(1)   Bbb     0.0009     0.467     0.166     0.156  0.9416  0.3352  0.0307
              Bcc     0.0028     1.475     0.526     0.492 -0.2494  0.7560 -0.6052
 
              Baa    -0.2239    -9.180    -3.276    -3.062 -0.1869  0.6162  0.7651
    21 S(33)  Bbb    -0.1717    -7.040    -2.512    -2.348  0.7875 -0.3716  0.4917
              Bcc     0.3956    16.221     5.788     5.411  0.5873  0.6944 -0.4158
 
              Baa    -0.0987    -3.806    -1.358    -1.270 -0.1757  0.6174  0.7668
    22 N(14)  Bbb     0.0204     0.788     0.281     0.263  0.9836  0.1425  0.1107
              Bcc     0.0782     3.018     1.077     1.007 -0.0409  0.7736 -0.6323
 
              Baa    -0.1608   -21.577    -7.699    -7.197 -0.2260  0.5265  0.8196
    23 C(13)  Bbb    -0.1526   -20.474    -7.306    -6.830  0.8781  0.4743 -0.0626
              Bcc     0.3134    42.051    15.005    14.027 -0.4217  0.7055 -0.5695
 
              Baa    -0.1513    10.951     3.907     3.653  0.8753  0.1569 -0.4574
    24 O(17)  Bbb    -0.1418    10.260     3.661     3.423  0.2454  0.6709  0.6997
              Bcc     0.2931   -21.211    -7.569    -7.075 -0.4167  0.7247 -0.5488
 
              Baa    -0.0092    -4.888    -1.744    -1.630  0.8939  0.0737 -0.4422
    25 H(1)   Bbb    -0.0058    -3.076    -1.098    -1.026 -0.3563  0.7154 -0.6010
              Bcc     0.0149     7.964     2.842     2.656  0.2721  0.6948  0.6658
 
              Baa    -0.0190   -10.156    -3.624    -3.388  0.7072  0.5987  0.3761
    26 H(1)   Bbb    -0.0006    -0.335    -0.119    -0.112 -0.2624  0.7162 -0.6466
              Bcc     0.0197    10.490     3.743     3.499 -0.6565  0.3586  0.6636
 

 ---------------------------------------------------------------------------------

 Calling FoFJK, ICntrl=    100127 FMM=F ISym2X=0 I1Cent= 0 IOpClX= 1 NMat=1 NMatS=1 NMatT=0.
 -------------------------------------------------------------------
 Center     Atomic                   Forces (Hartrees/Bohr)
 Number     Number              X              Y              Z
 -------------------------------------------------------------------
      1        6          -0.002552058    0.007821761   -0.005771239
      2        1          -0.000000662    0.000001844   -0.000001818
      3        6          -0.000003109   -0.000000097    0.000000485
      4        6          -0.000003493    0.000004877   -0.000004774
      5        1           0.000002365   -0.000002546    0.000001583
      6        6           0.002576033   -0.007796184    0.005752774
      7        6           0.000000486    0.000000955   -0.000000726
      8        6           0.000003517   -0.000004113    0.000005067
      9        6           0.000000943    0.000000513    0.000001170
     10        1           0.000000064    0.000000799   -0.000000184
     11        6          -0.000000695   -0.000000598    0.000000499
     12        1          -0.000000886   -0.000000042   -0.000000024
     13        1          -0.000000901    0.000000150    0.000000396
     14        1          -0.000001065    0.000000068   -0.000000374
     15        6          -0.000001387    0.000001451   -0.000001998
     16        1           0.000001539    0.000004513    0.000000875
     17        1          -0.000001472    0.000000147   -0.000001833
     18        1           0.000002402   -0.000001979    0.000002140
     19        6          -0.000018003    0.000005613   -0.000008217
     20        1           0.000000186    0.000000378   -0.000000356
     21       16          -0.000009901   -0.000037759    0.000024396
     22        7           0.000004940    0.000001969    0.000001725
     23        6           0.000001048   -0.000001504   -0.000000119
     24        8           0.000001535   -0.000000039    0.000001032
     25        1          -0.000001233    0.000000613    0.000000088
     26        1          -0.000000192   -0.000000793   -0.000000568
 -------------------------------------------------------------------
 Cartesian Forces:  Max     0.007821761 RMS     0.001607330
 FormGI is forming the generalized inverse of G from B-inverse, IUseBI=4.

 GradGradGradGradGradGradGradGradGradGradGradGradGradGradGradGradGradGrad
 Berny optimization.
 Internal  Forces:  Max     0.010052366 RMS     0.000874956
 Search for a saddle point.
 Step number   1 out of a maximum of  142
 All quantities printed in internal units (Hartrees-Bohrs-Radians)
 Swapping is turned off.
 Second derivative matrix not updated -- analytic derivatives used.
 ITU=  0
     Eigenvalues ---   -0.03719  -0.00036   0.00137   0.00174   0.00417
     Eigenvalues ---    0.00534   0.00894   0.01340   0.01471   0.01519
     Eigenvalues ---    0.01609   0.01712   0.01847   0.01989   0.02555
     Eigenvalues ---    0.02757   0.03247   0.03952   0.03984   0.05149
     Eigenvalues ---    0.05461   0.05612   0.05754   0.05890   0.05913
     Eigenvalues ---    0.06048   0.06881   0.09200   0.11192   0.11827
     Eigenvalues ---    0.11998   0.12054   0.12273   0.12527   0.14436
     Eigenvalues ---    0.14651   0.14713   0.15201   0.15345   0.16907
     Eigenvalues ---    0.18518   0.19051   0.19112   0.19756   0.21071
     Eigenvalues ---    0.22241   0.22861   0.27357   0.31128   0.31650
     Eigenvalues ---    0.32621   0.33287   0.33505   0.33586   0.34195
     Eigenvalues ---    0.34604   0.34721   0.34919   0.35685   0.36006
     Eigenvalues ---    0.36537   0.36627   0.37363   0.39884   0.41099
     Eigenvalues ---    0.41304   0.45150   0.46319   0.48394   0.51941
     Eigenvalues ---    0.53182   0.57957
 Eigenvectors required to have negative eigenvalues:
                          R3        D1        D14       D2        D13
   1                    0.90529  -0.15620   0.15576  -0.14288   0.14227
                          D15       R4        D6        R2        D5
   1                   -0.09409  -0.09408   0.09408  -0.09187   0.08075
 RFO step:  Lambda0=2.107061256D-03 Lambda=-4.73105150D-04.
 Linear search not attempted -- option 19 set.
 Iteration  1 RMS(Cart)=  0.10579406 RMS(Int)=  0.02453800
 Iteration  2 RMS(Cart)=  0.05030924 RMS(Int)=  0.00213462
 Iteration  3 RMS(Cart)=  0.00321009 RMS(Int)=  0.00073663
 Iteration  4 RMS(Cart)=  0.00000838 RMS(Int)=  0.00073663
 Iteration  5 RMS(Cart)=  0.00000001 RMS(Int)=  0.00073663
 Variable       Old X    -DE/DX   Delta X   Delta X   Delta X     New X
                                 (Linear)    (Quad)   (Total)
    R1        2.05279  -0.00000   0.00000  -0.00323  -0.00323   2.04956
    R2        2.70292   0.00000   0.00000  -0.02341  -0.02308   2.67984
    R3        4.03199  -0.01005   0.00000   0.16160   0.16160   4.19359
    R4        2.69959  -0.00000   0.00000  -0.02154  -0.02122   2.67837
    R5        2.61478   0.00000   0.00000   0.00738   0.00738   2.62216
    R6        2.85316   0.00000   0.00000  -0.00014  -0.00014   2.85302
    R7        2.67172  -0.00000   0.00000  -0.00565  -0.00599   2.66573
    R8        2.05169  -0.00000   0.00000  -0.00013  -0.00013   2.05156
    R9        2.60873  -0.00000   0.00000   0.00581   0.00582   2.61454
   R10        3.34185  -0.00004   0.00000   0.00232   0.00287   3.34472
   R11        2.42514  -0.00000   0.00000  -0.00463  -0.00408   2.42106
   R12        2.05183   0.00000   0.00000   0.00028   0.00028   2.05212
   R13        2.84581  -0.00000   0.00000  -0.00064  -0.00064   2.84516
   R14        2.67386   0.00000   0.00000  -0.00437  -0.00470   2.66916
   R15        2.04881   0.00000   0.00000  -0.00009  -0.00009   2.04872
   R16        2.57665  -0.00001   0.00000  -0.00067  -0.00130   2.57535
   R17        2.62184  -0.00000   0.00000   0.00235   0.00222   2.62406
   R18        2.07560   0.00000   0.00000   0.00013   0.00013   2.07572
   R19        2.07619  -0.00000   0.00000   0.00014   0.00014   2.07633
   R20        2.06385   0.00000   0.00000   0.00010   0.00010   2.06395
   R21        2.06981   0.00000   0.00000  -0.00006  -0.00006   2.06975
   R22        2.06952  -0.00000   0.00000   0.00000   0.00000   2.06952
   R23        2.06493   0.00000   0.00000  -0.00002  -0.00002   2.06491
   R24        2.04323   0.00000   0.00000   0.00012   0.00012   2.04335
   R25        3.30086   0.00002   0.00000   0.00327   0.00290   3.30377
   R26        2.58192  -0.00000   0.00000  -0.00047  -0.00047   2.58145
   R27        1.82414   0.00000   0.00000  -0.00005  -0.00005   1.82409
    A1        2.06436   0.00000   0.00000   0.01922   0.01694   2.08130
    A2        1.60780  -0.00000   0.00000  -0.03574  -0.03519   1.57261
    A3        2.06280   0.00000   0.00000   0.01662   0.01403   2.07683
    A4        1.77025   0.00000   0.00000  -0.02958  -0.02942   1.74084
    A5        2.05363  -0.00000   0.00000   0.01461   0.01313   2.06677
    A6        1.75820  -0.00000   0.00000  -0.04049  -0.04034   1.71786
    A7        2.12404  -0.00000   0.00000   0.00063   0.00062   2.12466
    A8        2.06606  -0.00000   0.00000  -0.00326  -0.00325   2.06281
    A9        2.09306   0.00000   0.00000   0.00267   0.00266   2.09572
   A10        2.07664   0.00000   0.00000   0.00497   0.00463   2.08126
   A11        2.11827  -0.00000   0.00000  -0.00289  -0.00221   2.11605
   A12        2.08548  -0.00000   0.00000  -0.00181  -0.00215   2.08334
   A13        2.17601  -0.00000   0.00000   0.01212   0.00749   2.18351
   A14        2.10316  -0.00000   0.00000  -0.01875  -0.02300   2.08016
   A15        2.00264   0.00001   0.00000  -0.00115  -0.00333   1.99932
   A16        2.11462   0.00000   0.00000  -0.00217  -0.00150   2.11312
   A17        2.07882   0.00000   0.00000   0.00466   0.00430   2.08313
   A18        2.08693  -0.00000   0.00000  -0.00179  -0.00214   2.08479
   A19        2.13833   0.00000   0.00000   0.00024   0.00022   2.13855
   A20        2.06402  -0.00000   0.00000  -0.00193  -0.00191   2.06211
   A21        2.08084  -0.00000   0.00000   0.00170   0.00169   2.08253
   A22        2.17879   0.00000   0.00000   0.00139   0.00145   2.18024
   A23        2.08087   0.00000   0.00000   0.00032   0.00038   2.08125
   A24        2.02353  -0.00001   0.00000  -0.00170  -0.00183   2.02170
   A25        1.95654   0.00000   0.00000   0.00018   0.00018   1.95672
   A26        1.94904   0.00000   0.00000   0.00133   0.00133   1.95038
   A27        1.93601  -0.00000   0.00000  -0.00008  -0.00008   1.93594
   A28        1.88075  -0.00000   0.00000  -0.00063  -0.00063   1.88012
   A29        1.87135   0.00000   0.00000  -0.00095  -0.00095   1.87040
   A30        1.86578  -0.00000   0.00000   0.00003   0.00003   1.86581
   A31        1.93073   0.00000   0.00000  -0.00065  -0.00065   1.93008
   A32        1.94203   0.00000   0.00000   0.00040   0.00040   1.94244
   A33        1.93796  -0.00000   0.00000  -0.00017  -0.00017   1.93779
   A34        1.86053   0.00000   0.00000   0.00073   0.00073   1.86126
   A35        1.89273  -0.00000   0.00000  -0.00038  -0.00038   1.89235
   A36        1.89745  -0.00000   0.00000   0.00009   0.00009   1.89754
   A37        2.24017   0.00000   0.00000  -0.00030  -0.00009   2.24007
   A38        1.91048  -0.00000   0.00000  -0.00021  -0.00063   1.90985
   A39        2.13254   0.00000   0.00000   0.00049   0.00070   2.13324
   A40        1.54398   0.00000   0.00000  -0.00013   0.00103   1.54501
   A41        1.94413   0.00000   0.00000   0.00310   0.00457   1.94870
   A42        2.13116   0.00000   0.00000   0.00133   0.00101   2.13216
   A43        2.12893  -0.00000   0.00000  -0.00042  -0.00027   2.12866
   A44        2.02266  -0.00000   0.00000  -0.00072  -0.00057   2.02209
   A45        1.91788   0.00000   0.00000   0.00037   0.00037   1.91825
    D1        0.35957  -0.00000   0.00000  -0.09012  -0.09047   0.26910
    D2       -2.86274  -0.00000   0.00000  -0.08628  -0.08666  -2.94940
    D3       -1.36342  -0.00000   0.00000  -0.03676  -0.03669  -1.40011
    D4        1.69746  -0.00000   0.00000  -0.03292  -0.03289   1.66457
    D5        3.02262  -0.00000   0.00000   0.02430   0.02461   3.04723
    D6       -0.19968  -0.00000   0.00000   0.02814   0.02841  -0.17127
    D7        0.11831  -0.00000   0.00000   0.36485   0.36472   0.48303
    D8       -3.08253   0.00000   0.00000   0.19678   0.19716  -2.88537
    D9        2.20253  -0.00000   0.00000   0.37102   0.37037   2.57290
   D10       -0.99831   0.00000   0.00000   0.20295   0.20280  -0.79550
   D11       -1.96247  -0.00000   0.00000   0.36227   0.36230  -1.60017
   D12        1.11988   0.00000   0.00000   0.19420   0.19474   1.31461
   D13        2.86504   0.00000   0.00000   0.08421   0.08448   2.94952
   D14       -0.35742   0.00000   0.00000   0.09420   0.09447  -0.26295
   D15        0.20156   0.00000   0.00000  -0.03084  -0.03111   0.17045
   D16       -3.02090   0.00000   0.00000  -0.02084  -0.02112  -3.04202
   D17       -1.70248   0.00000   0.00000   0.02396   0.02390  -1.67858
   D18        1.35824   0.00000   0.00000   0.03396   0.03389   1.39213
   D19        3.06577   0.00000   0.00000   0.00971   0.00964   3.07541
   D20        0.00541   0.00000   0.00000  -0.00062  -0.00066   0.00476
   D21       -0.08365   0.00000   0.00000   0.01522   0.01512  -0.06853
   D22        3.13918   0.00000   0.00000   0.00489   0.00482  -3.13918
   D23        2.14554  -0.00000   0.00000  -0.00289  -0.00290   2.14265
   D24       -2.02512  -0.00000   0.00000  -0.00262  -0.00263  -2.02775
   D25        0.05419  -0.00000   0.00000  -0.00175  -0.00176   0.05242
   D26       -0.98810  -0.00000   0.00000  -0.00846  -0.00845  -0.99655
   D27        1.12442  -0.00000   0.00000  -0.00819  -0.00818   1.11624
   D28       -3.07946  -0.00000   0.00000  -0.00732  -0.00732  -3.08678
   D29       -0.04402  -0.00000   0.00000   0.00646   0.00642  -0.03760
   D30        3.13076  -0.00000   0.00000  -0.00074  -0.00073   3.13003
   D31        3.08989  -0.00000   0.00000   0.01186   0.01180   3.10169
   D32       -0.01852  -0.00000   0.00000   0.00466   0.00464  -0.01387
   D33       -3.06599   0.00000   0.00000  -0.00425  -0.00419  -3.07018
   D34        0.07935   0.00000   0.00000  -0.00975  -0.00967   0.06968
   D35       -0.00551   0.00000   0.00000  -0.00009  -0.00007  -0.00559
   D36        3.13983   0.00000   0.00000  -0.00559  -0.00556   3.13427
   D37        3.09036   0.00000   0.00000  -0.14922  -0.15058   2.93978
   D38        0.00497   0.00000   0.00000   0.01079   0.01077   0.01574
   D39       -3.09469  -0.00000   0.00000   0.13726   0.13576  -2.95893
   D40       -0.00674  -0.00000   0.00000  -0.01440  -0.01425  -0.02099
   D41        2.06540  -0.00000   0.00000  -0.00875  -0.00874   2.05666
   D42       -2.15308  -0.00000   0.00000  -0.00800  -0.00800  -2.16108
   D43       -0.03703  -0.00000   0.00000  -0.00773  -0.00772  -0.04475
   D44       -1.07998  -0.00000   0.00000  -0.00320  -0.00321  -1.08318
   D45        0.98473  -0.00000   0.00000  -0.00246  -0.00246   0.98226
   D46        3.10078  -0.00000   0.00000  -0.00218  -0.00219   3.09859
   D47        0.04618   0.00000   0.00000  -0.00914  -0.00910   0.03708
   D48       -3.12671  -0.00000   0.00000  -0.00235  -0.00234  -3.12905
   D49       -3.09179  -0.00000   0.00000  -0.01445  -0.01439  -3.10619
   D50        0.01851  -0.00000   0.00000  -0.00766  -0.00764   0.01086
   D51        0.00093   0.00000   0.00000   0.00211   0.00201   0.00294
   D52        3.13978   0.00000   0.00000  -0.00209  -0.00203   3.13775
   D53       -3.14057   0.00000   0.00000   0.00091   0.00102  -3.13954
   D54       -0.00171   0.00000   0.00000  -0.00330  -0.00302  -0.00473
   D55       -3.13598  -0.00000   0.00000   0.01044   0.01040  -3.12558
   D56        0.00553   0.00000   0.00000   0.01157   0.01133   0.01685
   D57       -0.00161  -0.00000   0.00000  -0.00372  -0.00386  -0.00547
   D58        3.13744  -0.00000   0.00000  -0.00762  -0.00761   3.12984
   D59       -0.08391  -0.00000   0.00000   0.00860   0.00857  -0.07534
   D60        3.08893  -0.00000   0.00000   0.00178   0.00181   3.09074
         Item               Value     Threshold  Converged?
 Maximum Force            0.010052     0.000450     NO 
 RMS     Force            0.000875     0.000300     NO 
 Maximum Displacement     0.642945     0.001800     NO 
 RMS     Displacement     0.152579     0.001200     NO 
 Predicted change in Energy= 7.564682D-04
 GradGradGradGradGradGradGradGradGradGradGradGradGradGradGradGradGradGrad

                          Input orientation:                          
 ---------------------------------------------------------------------
 Center     Atomic      Atomic             Coordinates (Angstroms)
 Number     Number       Type             X           Y           Z
 ---------------------------------------------------------------------
      1          6           0        4.703129   -2.155127    2.076406
      2          1           0        5.708215   -1.759808    2.175600
      3          6           0        3.256059   -3.871574    1.115088
      4          6           0        3.786286   -1.993538    3.146138
      5          1           0        4.006258   -1.274517    3.929233
      6          6           0        4.135572   -0.410040    0.828535
      7          6           0        4.457910   -3.178165    1.126617
      8          6           0        2.577990   -2.667292    3.163562
      9          6           0        2.721321    0.798641   -0.363686
     10          1           0        1.716918    1.105147   -0.633097
     11          6           0        2.945562   -4.904906    0.059071
     12          1           0        2.715676   -5.886219    0.495782
     13          1           0        2.090279   -4.606995   -0.563009
     14          1           0        3.794919   -5.042436   -0.613660
     15          6           0        1.545188   -2.449875    4.237277
     16          1           0        0.619123   -2.054435    3.806422
     17          1           0        1.283579   -3.390319    4.733726
     18          1           0        1.904766   -1.744133    4.990025
     19          6           0        3.863439    1.297190   -0.915299
     20          1           0        3.963704    2.053340   -1.681710
     21         16           0        5.249199    0.524885   -0.180662
     22          7           0        2.895097   -0.173619    0.612379
     23          6           0        2.314720   -3.590341    2.127364
     24          8           0        1.102383   -4.217511    2.181960
     25          1           0        0.994206   -4.791213    1.413255
     26          1           0        5.196384   -3.376905    0.355638
 ---------------------------------------------------------------------
                    Distance matrix (angstroms):
                    1          2          3          4          5
     1  C    0.000000
     2  H    1.084580   0.000000
     3  C    2.442199   3.405483   0.000000
     4  C    1.418110   2.165729   2.816616   0.000000
     5  H    2.166580   2.491463   3.902168   1.085641   0.000000
     6  C    2.219151   2.471774   3.582998   2.828560   3.221548
     7  C    1.417335   2.162259   1.387586   2.435751   3.417970
     8  C    2.441400   3.405569   2.471096   1.383556   2.136826
     9  C    4.313508   4.681364   4.927842   4.609693   4.937428
    10  H    5.185387   5.659257   5.494802   5.307235   5.631938
    11  C    3.836661   4.690798   1.509753   4.325836   5.411372
    12  H    4.513246   5.366968   2.175855   4.829446   5.892536
    13  H    4.450298   5.356857   2.171611   4.844003   5.912412
    14  H    4.049427   4.713419   2.156353   4.840654   5.905908
    15  C    3.837816   4.696540   3.833585   2.534038   2.744672
    16  H    4.436462   5.352124   4.183145   3.235831   3.477936
    17  H    4.503373   5.364697   4.149316   3.276427   3.540736
    18  H    4.060656   4.731538   4.622460   2.646175   2.400435
    19  C    4.644769   4.722510   5.586368   5.227822   5.486672
    20  H    5.690464   5.697566   6.589950   6.302128   6.523735
    21  S    3.546126   3.313984   4.998042   4.421557   4.655533
    22  N    3.055933   3.587936   3.749384   3.244419   3.667175
    23  C    2.786922   3.856032   1.410643   2.398580   3.386897
    24  O    4.150896   5.220539   2.428210   3.616493   4.488503
    25  H    4.598351   5.656188   2.459800   4.315736   5.269701
    26  H    2.167276   2.487818   2.141570   3.418913   4.313585
                    6          7          8          9         10
     6  C    0.000000
     7  C    2.802725   0.000000
     8  C    3.601888   2.818551   0.000000
     9  C    2.209616   4.588216   4.947192   0.000000
    10  H    3.206562   5.381113   5.421011   1.084137   0.000000
    11  C    4.712962   2.531499   3.844462   5.723587   6.173281
    12  H    5.667042   3.281294   4.183001   6.739886   7.151998
    13  H    4.871760   3.240689   4.229378   5.445993   5.724759
    14  H    4.863647   2.635077   4.624892   5.944180   6.489317
    15  C    4.742419   4.323258   1.505594   5.753694   6.032264
    16  H    4.892571   4.814603   2.150819   5.472574   5.558546
    17  H    5.680356   4.809638   2.159556   6.752636   7.014256
    18  H    4.906557   4.847773   2.154396   5.982865   6.306598
    19  C    2.455535   4.954959   5.831519   1.362814   2.173493
    20  H    3.521237   5.958152   6.905160   2.203400   2.654563
    21  S    1.769952   4.005957   5.339400   2.549237   3.608103
    22  N    1.281170   3.425510   3.581549   1.388593   2.138821
    23  C    3.888029   2.400968   1.412457   5.062985   5.479518
    24  O    5.052606   3.667908   2.354599   5.853464   6.052510
    25  H    5.422615   3.831622   3.175371   6.114483   6.283066
    26  H    3.186101   1.085933   3.904353   4.906989   5.759606
                   11         12         13         14         15
    11  C    0.000000
    12  H    1.098426   0.000000
    13  H    1.098747   1.774423   0.000000
    14  H    1.092195   1.762838   1.760106   0.000000
    15  C    5.044366   5.213184   5.290844   5.942580   0.000000
    16  H    5.251680   5.480734   5.269894   6.208941   1.095265
    17  H    5.187346   5.122557   5.494221   6.134400   1.095142
    18  H    5.948785   6.165441   6.250326   6.771467   1.092701
    19  C    6.344911   7.410120   6.174756   6.347168   6.779663
    20  H    7.244592   8.326802   7.008656   7.177691   7.820650
    21  S    5.903121   6.926656   6.038307   5.770397   6.487455
    22  N    4.763798   5.716606   4.656618   5.100807   4.488148
    23  C    2.530588   2.844975   2.884799   3.436973   2.518844
    24  O    2.894214   2.868884   2.943211   3.968090   2.746806
    25  H    2.377926   2.237019   2.267362   3.466337   3.709521
    26  H    2.736592   3.531318   3.464812   2.382779   5.409042
                   16         17         18         19         20
    16  H    0.000000
    17  H    1.756696   0.000000
    18  H    1.774847   1.778058   0.000000
    19  C    6.637290   7.780740   6.925237   0.000000
    20  H    7.627556   8.830306   7.948086   1.081296   0.000000
    21  S    6.632294   7.430086   6.562749   1.748279   2.498363
    22  N    4.349647   5.470799   4.755107   2.331259   3.371070
    23  C    2.837832   2.810050   3.430943   5.961904   7.005664
    24  O    2.747965   2.688603   3.827093   6.901331   7.901814
    25  H    3.654844   3.615490   4.786135   7.122030   8.077414
    26  H    5.882869   5.871787   5.914240   5.023862   5.929405
                   21         22         23         24         25
    21  S    0.000000
    22  N    2.580430   0.000000
    23  C    5.556369   3.782328   0.000000
    24  O    6.728178   4.693662   1.366046   0.000000
    25  H    6.993313   5.057367   1.922447   0.965268   0.000000
    26  H    3.938829   3.952579   3.389477   4.561021   4.558193
                   26
    26  H    0.000000
 Symmetry turned off by external request.
 Stoichiometry    C11H12NOS(2)
 Framework group  C1[X(C11H12NOS)]
 Deg. of freedom    72
 Full point group                 C1      NOp   1
 Rotational constants (GHZ):           1.0379325           0.3715909           0.3460288
 Standard basis: 6-31G(d,p) (6D, 7F)
   274 basis functions,   500 primitive gaussians,   274 cartesian basis functions
    55 alpha electrons       54 beta electrons
       nuclear repulsion energy       942.2881028182 Hartrees.
 NAtoms=   26 NActive=   26 NUniq=   26 SFac= 1.00D+00 NAtFMM=   60 NAOKFM=F Big=F
 Integral buffers will be    131072 words long.
 Raffenetti 2 integral format.
 Two-electron integral symmetry is turned off.
 Nuclear repulsion after empirical dispersion term =      942.2655205506 Hartrees.
 One-electron integrals computed using PRISM.
 NBasis=   274 RedAO= T EigKep=  4.48D-04  NBF=   274
 NBsUse=   274 1.00D-06 EigRej= -1.00D+00 NBFU=   274
 Initial guess from the checkpoint file:  "/scratch/jcuzick/job_48780924/Gau-1202240.chk"
 B after Tr=     0.001899    0.003659    0.037776
         Rot=    0.999925    0.005710   -0.009128    0.005847 Ang=   1.40 deg.
 Initial guess <Sx>= 0.0000 <Sy>= 0.0000 <Sz>= 0.5000 <S**2>= 0.7823 S= 0.5160
 ExpMin= 1.17D-01 ExpMax= 2.19D+04 ExpMxC= 3.30D+03 IAcc=3 IRadAn=         5 AccDes= 0.00D+00
 Harris functional with IExCor=  402 and IRadAn=       5 diagonalized for initial guess.
 HarFok:  IExCor=  402 AccDes= 0.00D+00 IRadAn=         5 IDoV= 1 UseB2=F ITyADJ=14
 ICtDFT=  3500011 ScaDFX=  1.000000  1.000000  1.000000  1.000000
 FoFCou: FMM=F IPFlag=           0 FMFlag=      100000 FMFlg1=           0
         NFxFlg=           0 DoJE=T BraDBF=F KetDBF=T FulRan=T
         wScrn=  0.000000 ICntrl=       500 IOpCl=  0 I1Cent=   200000004 NGrid=           0
         NMat0=    1 NMatS0=      1 NMatT0=    0 NMatD0=    1 NMtDS0=    0 NMtDT0=    0
 Symmetry not used in FoFCou.
 Requested convergence on RMS density matrix=1.00D-08 within 128 cycles.
 Requested convergence on MAX density matrix=1.00D-06.
 Requested convergence on             energy=1.00D-06.
 No special actions if energy rises.
 Integral accuracy reduced to 1.0D-05 until final iterations.
 Initial convergence to 1.0D-05 achieved.  Increase integral accuracy.
 SCF Done:  E(UB3LYP) =  -954.502496148     A.U. after   20 cycles
            NFock= 20  Conv=0.40D-08     -V/T= 2.0069
 <Sx>= 0.0000 <Sy>= 0.0000 <Sz>= 0.5000 <S**2>= 0.7758 S= 0.5128
 <L.S>= 0.000000000000E+00
 Annihilation of the first spin contaminant:
 S**2 before annihilation     0.7758,   after     0.7505
 Calling FoFJK, ICntrl=      2127 FMM=F ISym2X=0 I1Cent= 0 IOpClX= 1 NMat=1 NMatS=1 NMatT=0.
 -------------------------------------------------------------------
 Center     Atomic                   Forces (Hartrees/Bohr)
 Number     Number              X              Y              Z
 -------------------------------------------------------------------
      1        6           0.000259994    0.002189441   -0.001594196
      2        1           0.000263819   -0.000202764    0.000380858
      3        6           0.000560507    0.000004010   -0.000238234
      4        6          -0.000761626    0.000220325    0.000738705
      5        1          -0.000017444    0.000025291    0.000010685
      6        6          -0.000345621   -0.000863040    0.000512021
      7        6          -0.000361684   -0.000707805   -0.000873532
      8        6           0.000238539    0.000224973    0.000242644
      9        6          -0.000121922   -0.000282452    0.000173500
     10        1           0.000006044   -0.000050296    0.000019421
     11        6           0.000035303   -0.000032192   -0.000001917
     12        1          -0.000005021   -0.000002018    0.000001425
     13        1           0.000002689    0.000002688    0.000008534
     14        1          -0.000009169    0.000012454   -0.000002355
     15        6           0.000016856   -0.000001997    0.000029671
     16        1           0.000005646    0.000007169   -0.000004537
     17        1          -0.000003586   -0.000002034   -0.000004070
     18        1          -0.000004817    0.000000708   -0.000007275
     19        6           0.000141975   -0.000119826    0.000071037
     20        1           0.000065775   -0.000031739   -0.000001773
     21       16           0.000467695   -0.000218822    0.000153020
     22        7           0.000000133   -0.000127259    0.000367595
     23        6          -0.000246789    0.000008775    0.000070885
     24        8          -0.000160931   -0.000060010   -0.000027744
     25        1           0.000009823   -0.000007208    0.000008062
     26        1          -0.000036188    0.000013627   -0.000032429
 -------------------------------------------------------------------
 Cartesian Forces:  Max     0.002189441 RMS     0.000402070

 GradGradGradGradGradGradGradGradGradGradGradGradGradGradGradGradGradGrad
 Berny optimization.
 FormGI is forming the generalized inverse of G from B-inverse, IUseBI=4.
 Internal  Forces:  Max     0.002113490 RMS     0.000266743
 Search for a saddle point.
 Step number   2 out of a maximum of  142
 All quantities printed in internal units (Hartrees-Bohrs-Radians)
 Swapping is turned off.
 Update second derivatives using D2CorX and points    1    2
 ITU=  0  0
     Eigenvalues ---   -0.03589  -0.00059   0.00137   0.00174   0.00416
     Eigenvalues ---    0.00534   0.00891   0.01340   0.01471   0.01519
     Eigenvalues ---    0.01609   0.01711   0.01847   0.01989   0.02555
     Eigenvalues ---    0.02757   0.03234   0.03950   0.03962   0.05148
     Eigenvalues ---    0.05446   0.05599   0.05753   0.05890   0.05912
     Eigenvalues ---    0.06048   0.06857   0.09200   0.11191   0.11826
     Eigenvalues ---    0.11996   0.12051   0.12273   0.12527   0.14436
     Eigenvalues ---    0.14651   0.14713   0.15190   0.15345   0.16906
     Eigenvalues ---    0.18517   0.19043   0.19112   0.19755   0.21071
     Eigenvalues ---    0.22211   0.22861   0.27354   0.31127   0.31650
     Eigenvalues ---    0.32621   0.33286   0.33505   0.33586   0.34195
     Eigenvalues ---    0.34604   0.34721   0.34919   0.35686   0.36006
     Eigenvalues ---    0.36537   0.36628   0.37363   0.39886   0.41093
     Eigenvalues ---    0.41288   0.45148   0.46320   0.48380   0.51941
     Eigenvalues ---    0.53182   0.57955
 Eigenvectors required to have negative eigenvalues:
                          R3        D1        D14       D2        D13
   1                    0.90441  -0.15648   0.15548  -0.14302   0.14213
                          D6        D15       R4        R2        D16
   1                    0.09685  -0.09680  -0.09200  -0.08963  -0.08345
 RFO step:  Lambda0=1.306407056D-04 Lambda=-6.12890876D-04.
 Linear search not attempted -- option 19 set.
 Iteration  1 RMS(Cart)=  0.10617389 RMS(Int)=  0.02486672
 Iteration  2 RMS(Cart)=  0.05513487 RMS(Int)=  0.00227798
 Iteration  3 RMS(Cart)=  0.00351903 RMS(Int)=  0.00089523
 Iteration  4 RMS(Cart)=  0.00001080 RMS(Int)=  0.00089522
 Iteration  5 RMS(Cart)=  0.00000002 RMS(Int)=  0.00089522
 Variable       Old X    -DE/DX   Delta X   Delta X   Delta X     New X
                                 (Linear)    (Quad)   (Total)
    R1        2.04956   0.00021   0.00000  -0.00026  -0.00026   2.04930
    R2        2.67984   0.00091   0.00000  -0.00526  -0.00519   2.67465
    R3        4.19359  -0.00211   0.00000   0.07239   0.07239   4.26598
    R4        2.67837   0.00092   0.00000  -0.00353  -0.00346   2.67491
    R5        2.62216  -0.00029   0.00000   0.00220   0.00220   2.62436
    R6        2.85302   0.00000   0.00000   0.00015   0.00015   2.85317
    R7        2.66573   0.00054   0.00000  -0.00103  -0.00111   2.66462
    R8        2.05156   0.00002   0.00000  -0.00013  -0.00013   2.05143
    R9        2.61454  -0.00018   0.00000   0.00107   0.00108   2.61562
   R10        3.34472  -0.00017   0.00000  -0.00127  -0.00044   3.34429
   R11        2.42106  -0.00037   0.00000  -0.00218  -0.00135   2.41971
   R12        2.05212  -0.00000   0.00000   0.00011   0.00011   2.05223
   R13        2.84516   0.00000   0.00000  -0.00031  -0.00031   2.84485
   R14        2.66916   0.00040   0.00000  -0.00011  -0.00018   2.66897
   R15        2.04872  -0.00002   0.00000  -0.00013  -0.00013   2.04859
   R16        2.57535   0.00033   0.00000  -0.00090  -0.00186   2.57348
   R17        2.62406  -0.00031   0.00000   0.00120   0.00100   2.62506
   R18        2.07572   0.00000   0.00000   0.00005   0.00005   2.07578
   R19        2.07633  -0.00001   0.00000   0.00011   0.00011   2.07644
   R20        2.06395  -0.00001   0.00000   0.00002   0.00002   2.06397
   R21        2.06975  -0.00000   0.00000  -0.00007  -0.00007   2.06968
   R22        2.06952   0.00000   0.00000  -0.00004  -0.00004   2.06948
   R23        2.06491  -0.00001   0.00000  -0.00007  -0.00007   2.06483
   R24        2.04335  -0.00001   0.00000  -0.00000  -0.00000   2.04335
   R25        3.30377  -0.00004   0.00000   0.00185   0.00130   3.30506
   R26        2.58145   0.00016   0.00000   0.00045   0.00045   2.58190
   R27        1.82409  -0.00000   0.00000  -0.00004  -0.00004   1.82405
    A1        2.08130  -0.00011   0.00000   0.00498   0.00470   2.08600
    A2        1.57261   0.00031   0.00000  -0.00054  -0.00045   1.57216
    A3        2.07683   0.00003   0.00000   0.00493   0.00458   2.08141
    A4        1.74084  -0.00010   0.00000  -0.01252  -0.01254   1.72829
    A5        2.06677   0.00006   0.00000   0.00492   0.00459   2.07136
    A6        1.71786  -0.00017   0.00000  -0.02766  -0.02767   1.69020
    A7        2.12466  -0.00006   0.00000   0.00005   0.00005   2.12471
    A8        2.06281   0.00007   0.00000  -0.00102  -0.00102   2.06179
    A9        2.09572  -0.00001   0.00000   0.00097   0.00097   2.09669
   A10        2.08126   0.00009   0.00000   0.00165   0.00157   2.08284
   A11        2.11605  -0.00015   0.00000  -0.00141  -0.00126   2.11479
   A12        2.08334   0.00006   0.00000  -0.00022  -0.00029   2.08304
   A13        2.18351  -0.00069   0.00000  -0.02390  -0.02985   2.15366
   A14        2.08016  -0.00012   0.00000  -0.01168  -0.01803   2.06213
   A15        1.99932   0.00079   0.00000   0.00076  -0.00256   1.99676
   A16        2.11312  -0.00015   0.00000  -0.00095  -0.00081   2.11230
   A17        2.08313   0.00010   0.00000   0.00159   0.00152   2.08464
   A18        2.08479   0.00005   0.00000  -0.00028  -0.00036   2.08443
   A19        2.13855  -0.00005   0.00000  -0.00007  -0.00008   2.13847
   A20        2.06211   0.00005   0.00000  -0.00008  -0.00008   2.06203
   A21        2.08253  -0.00000   0.00000   0.00015   0.00014   2.08267
   A22        2.18024   0.00005   0.00000   0.00087   0.00097   2.18121
   A23        2.08125  -0.00004   0.00000  -0.00011  -0.00001   2.08123
   A24        2.02170  -0.00001   0.00000  -0.00076  -0.00096   2.02074
   A25        1.95672   0.00000   0.00000  -0.00006  -0.00006   1.95666
   A26        1.95038  -0.00001   0.00000   0.00099   0.00099   1.95136
   A27        1.93594  -0.00000   0.00000  -0.00009  -0.00009   1.93585
   A28        1.88012   0.00000   0.00000  -0.00056  -0.00056   1.87956
   A29        1.87040   0.00001   0.00000  -0.00031  -0.00031   1.87009
   A30        1.86581   0.00000   0.00000  -0.00003  -0.00003   1.86579
   A31        1.93008  -0.00001   0.00000  -0.00085  -0.00085   1.92923
   A32        1.94244   0.00000   0.00000   0.00029   0.00029   1.94273
   A33        1.93779   0.00000   0.00000  -0.00017  -0.00017   1.93762
   A34        1.86126   0.00000   0.00000   0.00072   0.00072   1.86198
   A35        1.89235  -0.00000   0.00000  -0.00039  -0.00039   1.89196
   A36        1.89754   0.00000   0.00000   0.00043   0.00043   1.89797
   A37        2.24007  -0.00003   0.00000   0.00050   0.00081   2.24088
   A38        1.90985   0.00020   0.00000  -0.00005  -0.00069   1.90916
   A39        2.13324  -0.00017   0.00000  -0.00046  -0.00015   2.13309
   A40        1.54501  -0.00052   0.00000  -0.00052   0.00126   1.54627
   A41        1.94870  -0.00046   0.00000   0.00029   0.00256   1.95126
   A42        2.13216   0.00013   0.00000   0.00084   0.00077   2.13294
   A43        2.12866  -0.00009   0.00000  -0.00036  -0.00033   2.12833
   A44        2.02209  -0.00004   0.00000  -0.00042  -0.00039   2.02171
   A45        1.91825  -0.00001   0.00000  -0.00001  -0.00001   1.91823
    D1        0.26910   0.00011   0.00000  -0.03264  -0.03267   0.23643
    D2       -2.94940   0.00012   0.00000  -0.03237  -0.03241  -2.98181
    D3       -1.40011  -0.00018   0.00000  -0.02589  -0.02589  -1.42600
    D4        1.66457  -0.00017   0.00000  -0.02562  -0.02563   1.63894
    D5        3.04723   0.00007   0.00000   0.01283   0.01288   3.06011
    D6       -0.17127   0.00008   0.00000   0.01310   0.01314  -0.15814
    D7        0.48303   0.00009   0.00000   0.36700   0.36608   0.84911
    D8       -2.88537   0.00006   0.00000   0.17435   0.17534  -2.71003
    D9        2.57290   0.00003   0.00000   0.37072   0.36958   2.94248
   D10       -0.79550   0.00000   0.00000   0.17807   0.17883  -0.61667
   D11       -1.60017   0.00002   0.00000   0.36446   0.36366  -1.23651
   D12        1.31461  -0.00001   0.00000   0.17181   0.17292   1.48753
   D13        2.94952  -0.00015   0.00000   0.02901   0.02905   2.97858
   D14       -0.26295  -0.00013   0.00000   0.03487   0.03492  -0.22803
   D15        0.17045  -0.00008   0.00000  -0.01636  -0.01640   0.15405
   D16       -3.04202  -0.00006   0.00000  -0.01049  -0.01053  -3.05255
   D17       -1.67858   0.00012   0.00000   0.01362   0.01360  -1.66498
   D18        1.39213   0.00015   0.00000   0.01948   0.01947   1.41160
   D19        3.07541   0.00004   0.00000   0.00677   0.00675   3.08216
   D20        0.00476   0.00001   0.00000   0.00082   0.00081   0.00557
   D21       -0.06853   0.00005   0.00000   0.01015   0.01012  -0.05841
   D22       -3.13918   0.00003   0.00000   0.00420   0.00418  -3.13500
   D23        2.14265   0.00001   0.00000  -0.00487  -0.00487   2.13777
   D24       -2.02775   0.00000   0.00000  -0.00494  -0.00494  -2.03269
   D25        0.05242  -0.00000   0.00000  -0.00438  -0.00438   0.04805
   D26       -0.99655  -0.00000   0.00000  -0.00831  -0.00831  -1.00486
   D27        1.11624  -0.00001   0.00000  -0.00838  -0.00838   1.10786
   D28       -3.08678  -0.00002   0.00000  -0.00782  -0.00782  -3.09459
   D29       -0.03760  -0.00001   0.00000   0.00023   0.00022  -0.03738
   D30        3.13003  -0.00002   0.00000  -0.00240  -0.00240   3.12763
   D31        3.10169  -0.00000   0.00000   0.00355   0.00354   3.10522
   D32       -0.01387  -0.00001   0.00000   0.00092   0.00092  -0.01295
   D33       -3.07018  -0.00003   0.00000  -0.00063  -0.00062  -3.07080
   D34        0.06968  -0.00004   0.00000  -0.00371  -0.00370   0.06598
   D35       -0.00559  -0.00001   0.00000  -0.00029  -0.00028  -0.00587
   D36        3.13427  -0.00003   0.00000  -0.00337  -0.00336   3.13091
   D37        2.93978  -0.00015   0.00000  -0.17566  -0.17536   2.76442
   D38        0.01574  -0.00003   0.00000   0.01039   0.01059   0.02633
   D39       -2.95893   0.00024   0.00000   0.16184   0.16287  -2.79605
   D40       -0.02099   0.00003   0.00000  -0.01410  -0.01441  -0.03540
   D41        2.05666  -0.00001   0.00000  -0.00707  -0.00707   2.04959
   D42       -2.16108  -0.00001   0.00000  -0.00653  -0.00653  -2.16761
   D43       -0.04475  -0.00000   0.00000  -0.00590  -0.00590  -0.05065
   D44       -1.08318   0.00000   0.00000  -0.00395  -0.00395  -1.08714
   D45        0.98226   0.00000   0.00000  -0.00342  -0.00342   0.97884
   D46        3.09859   0.00001   0.00000  -0.00278  -0.00278   3.09581
   D47        0.03708   0.00000   0.00000  -0.00339  -0.00338   0.03370
   D48       -3.12905   0.00001   0.00000  -0.00091  -0.00091  -3.12996
   D49       -3.10619  -0.00001   0.00000  -0.00637  -0.00636  -3.11254
   D50        0.01086  -0.00000   0.00000  -0.00389  -0.00389   0.00698
   D51        0.00294   0.00000   0.00000   0.00239   0.00245   0.00538
   D52        3.13775   0.00000   0.00000  -0.00155  -0.00146   3.13629
   D53       -3.13954  -0.00001   0.00000   0.00038   0.00028  -3.13926
   D54       -0.00473  -0.00001   0.00000  -0.00356  -0.00363  -0.00836
   D55       -3.12558  -0.00004   0.00000   0.00968   0.00983  -3.11574
   D56        0.01685  -0.00003   0.00000   0.01156   0.01187   0.02872
   D57       -0.00547   0.00002   0.00000  -0.00336  -0.00345  -0.00892
   D58        3.12984   0.00003   0.00000  -0.00701  -0.00706   3.12277
   D59       -0.07534   0.00002   0.00000   0.00872   0.00871  -0.06663
   D60        3.09074   0.00001   0.00000   0.00623   0.00624   3.09698
         Item               Value     Threshold  Converged?
 Maximum Force            0.002113     0.000450     NO 
 RMS     Force            0.000267     0.000300     YES
 Maximum Displacement     0.802271     0.001800     NO 
 RMS     Displacement     0.157956     0.001200     NO 
 Predicted change in Energy=-2.019060D-04
 GradGradGradGradGradGradGradGradGradGradGradGradGradGradGradGradGradGrad

                          Input orientation:                          
 ---------------------------------------------------------------------
 Center     Atomic      Atomic             Coordinates (Angstroms)
 Number     Number       Type             X           Y           Z
 ---------------------------------------------------------------------
      1          6           0        4.745785   -2.166853    2.170048
      2          1           0        5.748903   -1.774321    2.295293
      3          6           0        3.287539   -3.807529    1.102146
      4          6           0        3.802291   -2.015500    3.214158
      5          1           0        4.013576   -1.326789    4.026256
      6          6           0        4.192190   -0.364530    0.928560
      7          6           0        4.503554   -3.140338    1.171401
      8          6           0        2.578327   -2.660479    3.172716
      9          6           0        2.696006    0.779123   -0.230659
     10          1           0        1.690808    1.154867   -0.384259
     11          6           0        2.984123   -4.793169   -0.000596
     12          1           0        2.727556   -5.786530    0.391843
     13          1           0        2.148687   -4.456869   -0.630132
     14          1           0        3.846627   -4.919785   -0.658597
     15          6           0        1.517646   -2.452013    4.220487
     16          1           0        0.618006   -2.014435    3.774733
     17          1           0        1.213948   -3.401528    4.673790
     18          1           0        1.871819   -1.783795    5.009131
     19          6           0        3.756970    1.031913   -1.046152
     20          1           0        3.784023    1.628796   -1.947371
     21         16           0        5.178986    0.234721   -0.412724
     22          7           0        2.958262   -0.027661    0.869335
     23          6           0        2.325310   -3.540999    2.097807
     24          8           0        1.097865   -4.141091    2.095975
     25          1           0        1.001526   -4.689913    1.307805
     26          1           0        5.257550   -3.325059    0.411963
 ---------------------------------------------------------------------
                    Distance matrix (angstroms):
                    1          2          3          4          5
     1  C    0.000000
     2  H    1.084441   0.000000
     3  C    2.441048   3.408203   0.000000
     4  C    1.415364   2.166051   2.817256   0.000000
     5  H    2.165027   2.491561   3.902770   1.085572   0.000000
     6  C    2.257460   2.505758   3.564094   2.846345   3.248625
     7  C    1.415502   2.163338   1.388752   2.435136   3.417489
     8  C    2.438624   3.407007   2.471025   1.384126   2.137101
     9  C    4.317842   4.713882   4.812864   4.571711   4.928710
    10  H    5.185671   5.676994   5.420730   5.240056   5.568349
    11  C    3.835712   4.693459   1.509830   4.326602   5.412125
    12  H    4.509692   5.371171   2.175903   4.831271   5.895090
    13  H    4.453101   5.358706   2.172422   4.844921   5.912458
    14  H    4.048254   4.715726   2.156365   4.840979   5.906382
    15  C    3.834906   4.697784   3.833275   2.534333   2.744726
    16  H    4.431344   5.345325   4.181424   3.233251   3.473617
    17  H    4.501891   5.373161   4.149850   3.278890   3.544257
    18  H    4.057931   4.732524   4.622152   2.646192   2.400421
    19  C    4.642607   4.796666   5.315613   5.238227   5.599879
    20  H    5.681996   5.782919   6.252973   6.318434   6.668763
    21  S    3.553298   3.419709   4.712980   4.484758   4.847787
    22  N    3.076237   3.587736   3.801318   3.187802   3.573174
    23  C    2.784277   3.857608   1.410058   2.398929   3.387017
    24  O    4.148545   5.222402   2.427680   3.616959   4.488614
    25  H    4.596605   5.658038   2.459015   4.316359   5.270012
    26  H    2.166613   2.488604   2.142446   3.418337   4.313197
                    6          7          8          9         10
     6  C    0.000000
     7  C    2.803753   0.000000
     8  C    3.593352   2.818160   0.000000
     9  C    2.211402   4.538191   4.840215   0.000000
    10  H    3.207643   5.364737   5.291184   1.084066   0.000000
    11  C    4.683546   2.532607   3.844859   5.584477   6.099098
    12  H    5.641923   3.280885   4.186611   6.595173   7.061173
    13  H    4.832460   3.244099   4.227678   5.279655   5.635751
    14  H    4.836200   2.635694   4.625150   5.829633   6.451683
    15  C    4.727320   4.322773   1.505432   5.625075   5.851773
    16  H    4.857745   4.810663   2.150036   5.307092   5.337845
    17  H    5.667454   4.812115   2.159607   6.612712   6.824366
    18  H    4.904028   4.847103   2.154100   5.890945   6.144684
    19  C    2.457429   4.783577   5.729033   1.361828   2.173073
    20  H    3.522915   5.743614   6.787259   2.202913   2.655085
    21  S    1.769720   3.789021   5.291597   2.548472   3.607612
    22  N    1.280456   3.488256   3.518756   1.389124   2.139231
    23  C    3.865532   2.400730   1.412361   4.921649   5.349242
    24  O    5.019972   3.668114   2.354432   5.672371   5.877951
    25  H    5.388238   3.831969   3.175342   5.928617   6.123695
    26  H    3.188510   1.085992   3.904058   4.880449   5.781467
                   11         12         13         14         15
    11  C    0.000000
    12  H    1.098454   0.000000
    13  H    1.098803   1.774126   0.000000
    14  H    1.092204   1.762666   1.760143   0.000000
    15  C    5.044711   5.219329   5.286414   5.943023   0.000000
    16  H    5.250998   5.488427   5.264153   6.206405   1.095227
    17  H    5.188455   5.129747   5.488084   6.137626   1.095123
    18  H    5.949026   6.170374   6.246861   6.771812   1.092663
    19  C    5.968422   7.044053   5.734664   5.964977   6.699985
    20  H    6.758063   7.846980   6.437760   6.674487   7.735111
    21  S    5.501541   6.550748   5.589365   5.329594   6.487727
    22  N    4.844328   5.783233   4.745703   5.201601   4.379848
    23  C    2.530861   2.848600   2.882996   3.437037   2.518726
    24  O    2.894613   2.875313   2.938639   3.968592   2.746407
    25  H    2.377659   2.240699   2.264042   3.466147   3.709218
    26  H    2.737521   3.529888   3.468716   2.383266   5.408693
                   16         17         18         19         20
    16  H    0.000000
    17  H    1.757121   0.000000
    18  H    1.774537   1.778288   0.000000
    19  C    6.509552   7.670730   6.938909   0.000000
    20  H    7.485938   8.703402   7.980928   1.081294   0.000000
    21  S    6.587567   7.403814   6.663953   1.748965   2.498902
    22  N    4.226749   5.375823   4.626259   2.330177   3.370395
    23  C    2.838550   2.808962   3.430631   5.731113   6.724439
    24  O    2.751574   2.684317   3.826530   6.610883   7.540271
    25  H    3.659372   3.610390   4.785682   6.772952   7.633122
    26  H    5.878038   5.875350   5.913766   4.833327   5.681410
                   21         22         23         24         25
    21  S    0.000000
    22  N    2.577623   0.000000
    23  C    5.357452   3.775356   0.000000
    24  O    6.488209   4.678250   1.366285   0.000000
    25  H    6.683069   5.075201   1.922631   0.965246   0.000000
    26  H    3.654903   4.045831   3.389209   4.561226   4.558410
                   26
    26  H    0.000000
 Symmetry turned off by external request.
 Stoichiometry    C11H12NOS(2)
 Framework group  C1[X(C11H12NOS)]
 Deg. of freedom    72
 Full point group                 C1      NOp   1
 Rotational constants (GHZ):           1.0033901           0.3920874           0.3611373
 Standard basis: 6-31G(d,p) (6D, 7F)
   274 basis functions,   500 primitive gaussians,   274 cartesian basis functions
    55 alpha electrons       54 beta electrons
       nuclear repulsion energy       947.3675881679 Hartrees.
 NAtoms=   26 NActive=   26 NUniq=   26 SFac= 1.00D+00 NAtFMM=   60 NAOKFM=F Big=F
 Integral buffers will be    131072 words long.
 Raffenetti 2 integral format.
 Two-electron integral symmetry is turned off.
 Nuclear repulsion after empirical dispersion term =      947.3445919569 Hartrees.
 One-electron integrals computed using PRISM.
 NBasis=   274 RedAO= T EigKep=  4.36D-04  NBF=   274
 NBsUse=   274 1.00D-06 EigRej= -1.00D+00 NBFU=   274
 Initial guess from the checkpoint file:  "/scratch/jcuzick/job_48780924/Gau-1202240.chk"
 B after Tr=    -0.002291   -0.002518    0.037240
         Rot=    0.999934    0.005556   -0.008071    0.005925 Ang=   1.31 deg.
 Initial guess <Sx>= 0.0000 <Sy>= 0.0000 <Sz>= 0.5000 <S**2>= 0.7761 S= 0.5130
 ExpMin= 1.17D-01 ExpMax= 2.19D+04 ExpMxC= 3.30D+03 IAcc=3 IRadAn=         5 AccDes= 0.00D+00
 Harris functional with IExCor=  402 and IRadAn=       5 diagonalized for initial guess.
 HarFok:  IExCor=  402 AccDes= 0.00D+00 IRadAn=         5 IDoV= 1 UseB2=F ITyADJ=14
 ICtDFT=  3500011 ScaDFX=  1.000000  1.000000  1.000000  1.000000
 FoFCou: FMM=F IPFlag=           0 FMFlag=      100000 FMFlg1=           0
         NFxFlg=           0 DoJE=T BraDBF=F KetDBF=T FulRan=T
         wScrn=  0.000000 ICntrl=       500 IOpCl=  0 I1Cent=   200000004 NGrid=           0
         NMat0=    1 NMatS0=      1 NMatT0=    0 NMatD0=    1 NMtDS0=    0 NMtDT0=    0
 Symmetry not used in FoFCou.
 Requested convergence on RMS density matrix=1.00D-08 within 128 cycles.
 Requested convergence on MAX density matrix=1.00D-06.
 Requested convergence on             energy=1.00D-06.
 No special actions if energy rises.
 Integral accuracy reduced to 1.0D-05 until final iterations.
 Initial convergence to 1.0D-05 achieved.  Increase integral accuracy.
 SCF Done:  E(UB3LYP) =  -954.502471464     A.U. after   19 cycles
            NFock= 19  Conv=0.89D-08     -V/T= 2.0069
 <Sx>= 0.0000 <Sy>= 0.0000 <Sz>= 0.5000 <S**2>= 0.7727 S= 0.5113
 <L.S>= 0.000000000000E+00
 Annihilation of the first spin contaminant:
 S**2 before annihilation     0.7727,   after     0.7504
 Calling FoFJK, ICntrl=      2127 FMM=F ISym2X=0 I1Cent= 0 IOpClX= 1 NMat=1 NMatS=1 NMatT=0.
 -------------------------------------------------------------------
 Center     Atomic                   Forces (Hartrees/Bohr)
 Number     Number              X              Y              Z
 -------------------------------------------------------------------
      1        6           0.000513677   -0.000264069   -0.000096903
      2        1          -0.000006378   -0.000212494    0.000270140
      3        6           0.000277898    0.000077608   -0.000233355
      4        6           0.000268485    0.000133272   -0.000167239
      5        1          -0.000010486   -0.000000117   -0.000001084
      6        6          -0.002052937    0.000865797   -0.001438677
      7        6          -0.000152114    0.000213931    0.000073003
      8        6          -0.000144855   -0.000076518   -0.000017986
      9        6          -0.000485277   -0.000347687    0.000696526
     10        1          -0.000018695   -0.000056542    0.000058596
     11        6          -0.000006198   -0.000037935   -0.000021247
     12        1           0.000004371    0.000001062    0.000015697
     13        1           0.000027915    0.000016003    0.000012940
     14        1          -0.000018582    0.000029690    0.000002100
     15        6          -0.000002598   -0.000005876    0.000022160
     16        1          -0.000011015    0.000011123    0.000021639
     17        1          -0.000005037    0.000004142   -0.000003660
     18        1          -0.000009209   -0.000000153   -0.000018862
     19        6           0.000590647   -0.000107562   -0.000103870
     20        1           0.000085235   -0.000013535    0.000008894
     21       16           0.001239140   -0.000189307    0.000012311
     22        7           0.000053599   -0.000221833    0.000633369
     23        6          -0.000139856    0.000118303    0.000309749
     24        8           0.000077851    0.000083324   -0.000037210
     25        1           0.000012087   -0.000034588   -0.000016939
     26        1          -0.000087668    0.000013960    0.000019908
 -------------------------------------------------------------------
 Cartesian Forces:  Max     0.002052937 RMS     0.000380018

 GradGradGradGradGradGradGradGradGradGradGradGradGradGradGradGradGradGrad
 Berny optimization.
 FormGI is forming the generalized inverse of G from B-inverse, IUseBI=4.
 Internal  Forces:  Max     0.001379020 RMS     0.000245804
 Search for a saddle point.
 Step number   3 out of a maximum of  142
 All quantities printed in internal units (Hartrees-Bohrs-Radians)
 Swapping is turned off.
 Update second derivatives using D2CorX and points    2    3
 ITU=  0  0  0
     Eigenvalues ---   -0.03592   0.00039   0.00137   0.00174   0.00416
     Eigenvalues ---    0.00534   0.00891   0.01340   0.01471   0.01519
     Eigenvalues ---    0.01609   0.01711   0.01847   0.01989   0.02555
     Eigenvalues ---    0.02757   0.03200   0.03934   0.03950   0.05145
     Eigenvalues ---    0.05396   0.05570   0.05752   0.05889   0.05912
     Eigenvalues ---    0.06048   0.06834   0.09199   0.11187   0.11825
     Eigenvalues ---    0.11984   0.12037   0.12272   0.12527   0.14436
     Eigenvalues ---    0.14651   0.14713   0.15174   0.15344   0.16906
     Eigenvalues ---    0.18514   0.19012   0.19112   0.19755   0.21070
     Eigenvalues ---    0.22095   0.22861   0.27346   0.31127   0.31649
     Eigenvalues ---    0.32621   0.33285   0.33505   0.33585   0.34195
     Eigenvalues ---    0.34604   0.34721   0.34919   0.35685   0.36006
     Eigenvalues ---    0.36535   0.36629   0.37363   0.39882   0.41068
     Eigenvalues ---    0.41224   0.45146   0.46319   0.48337   0.51941
     Eigenvalues ---    0.53182   0.57941
 Eigenvectors required to have negative eigenvalues:
                          R3        D1        D14       D2        D13
   1                   -0.90464   0.15695  -0.15608   0.14358  -0.14277
                          D15       D6        R4        R2        D16
   1                    0.09742  -0.09742   0.09149   0.08910   0.08411
 RFO step:  Lambda0=1.153755933D-06 Lambda=-1.00304636D-04.
 Linear search not attempted -- option 19 set.
 Iteration  1 RMS(Cart)=  0.06448348 RMS(Int)=  0.00289669
 Iteration  2 RMS(Cart)=  0.00466391 RMS(Int)=  0.00015905
 Iteration  3 RMS(Cart)=  0.00001767 RMS(Int)=  0.00015889
 Iteration  4 RMS(Cart)=  0.00000000 RMS(Int)=  0.00015889
 Variable       Old X    -DE/DX   Delta X   Delta X   Delta X     New X
                                 (Linear)    (Quad)   (Total)
    R1        2.04930  -0.00005   0.00000   0.00006   0.00006   2.04935
    R2        2.67465  -0.00017   0.00000   0.00112   0.00112   2.67577
    R3        4.26598   0.00016   0.00000  -0.01341  -0.01341   4.25257
    R4        2.67491  -0.00029   0.00000   0.00031   0.00031   2.67522
    R5        2.62436  -0.00021   0.00000  -0.00100  -0.00100   2.62336
    R6        2.85317  -0.00001   0.00000  -0.00010  -0.00010   2.85307
    R7        2.66462   0.00024   0.00000   0.00095   0.00094   2.66557
    R8        2.05143  -0.00000   0.00000   0.00009   0.00009   2.05152
    R9        2.61562   0.00006   0.00000   0.00027   0.00027   2.61589
   R10        3.34429   0.00016   0.00000  -0.00108  -0.00093   3.34336
   R11        2.41971  -0.00062   0.00000  -0.00150  -0.00136   2.41836
   R12        2.05223  -0.00008   0.00000  -0.00017  -0.00017   2.05206
   R13        2.84485   0.00004   0.00000   0.00013   0.00013   2.84499
   R14        2.66897  -0.00013   0.00000  -0.00057  -0.00057   2.66840
   R15        2.04859  -0.00001   0.00000   0.00001   0.00001   2.04860
   R16        2.57348   0.00098   0.00000   0.00224   0.00207   2.57556
   R17        2.62506  -0.00051   0.00000   0.00021   0.00017   2.62524
   R18        2.07578   0.00000   0.00000   0.00000   0.00000   2.07578
   R19        2.07644  -0.00002   0.00000  -0.00009  -0.00009   2.07635
   R20        2.06397  -0.00002   0.00000  -0.00004  -0.00004   2.06392
   R21        2.06968   0.00000   0.00000   0.00007   0.00007   2.06975
   R22        2.06948  -0.00000   0.00000  -0.00001  -0.00001   2.06947
   R23        2.06483  -0.00002   0.00000   0.00002   0.00002   2.06485
   R24        2.04335  -0.00001   0.00000  -0.00000  -0.00000   2.04334
   R25        3.30506  -0.00004   0.00000   0.00077   0.00067   3.30574
   R26        2.58190  -0.00010   0.00000  -0.00012  -0.00012   2.58178
   R27        1.82405   0.00003   0.00000   0.00002   0.00002   1.82407
    A1        2.08600  -0.00019   0.00000  -0.00247  -0.00248   2.08352
    A2        1.57216   0.00037   0.00000   0.00391   0.00391   1.57607
    A3        2.08141   0.00007   0.00000   0.00060   0.00058   2.08199
    A4        1.72829  -0.00006   0.00000   0.00140   0.00140   1.72970
    A5        2.07136   0.00014   0.00000  -0.00094  -0.00095   2.07041
    A6        1.69020  -0.00036   0.00000   0.00357   0.00357   1.69377
    A7        2.12471  -0.00000   0.00000  -0.00000  -0.00000   2.12470
    A8        2.06179  -0.00001   0.00000   0.00045   0.00045   2.06224
    A9        2.09669   0.00001   0.00000  -0.00045  -0.00045   2.09624
   A10        2.08284   0.00000   0.00000  -0.00036  -0.00036   2.08248
   A11        2.11479   0.00003   0.00000   0.00046   0.00046   2.11525
   A12        2.08304  -0.00003   0.00000  -0.00008  -0.00009   2.08296
   A13        2.15366  -0.00121   0.00000   0.00618   0.00503   2.15868
   A14        2.06213  -0.00016   0.00000   0.01467   0.01358   2.07570
   A15        1.99676   0.00138   0.00000   0.00682   0.00625   2.00301
   A16        2.11230  -0.00003   0.00000  -0.00006  -0.00005   2.11225
   A17        2.08464   0.00005   0.00000  -0.00011  -0.00011   2.08453
   A18        2.08443  -0.00002   0.00000  -0.00003  -0.00004   2.08439
   A19        2.13847   0.00005   0.00000   0.00009   0.00009   2.13856
   A20        2.06203  -0.00013   0.00000  -0.00039  -0.00039   2.06164
   A21        2.08267   0.00008   0.00000   0.00030   0.00030   2.08297
   A22        2.18121   0.00010   0.00000  -0.00024  -0.00022   2.18099
   A23        2.08123  -0.00007   0.00000  -0.00020  -0.00018   2.08105
   A24        2.02074  -0.00003   0.00000   0.00044   0.00040   2.02114
   A25        1.95666  -0.00001   0.00000   0.00013   0.00013   1.95679
   A26        1.95136  -0.00002   0.00000  -0.00061  -0.00061   1.95076
   A27        1.93585  -0.00001   0.00000  -0.00004  -0.00004   1.93581
   A28        1.87956   0.00002   0.00000   0.00039   0.00039   1.87995
   A29        1.87009   0.00002   0.00000   0.00026   0.00026   1.87035
   A30        1.86579  -0.00000   0.00000  -0.00010  -0.00010   1.86568
   A31        1.92923   0.00003   0.00000   0.00046   0.00046   1.92969
   A32        1.94273   0.00000   0.00000  -0.00009  -0.00009   1.94264
   A33        1.93762  -0.00001   0.00000   0.00004   0.00004   1.93766
   A34        1.86198  -0.00001   0.00000  -0.00029  -0.00029   1.86168
   A35        1.89196  -0.00002   0.00000  -0.00003  -0.00003   1.89194
   A36        1.89797   0.00000   0.00000  -0.00011  -0.00011   1.89786
   A37        2.24088  -0.00009   0.00000  -0.00078  -0.00073   2.24016
   A38        1.90916   0.00035   0.00000   0.00153   0.00142   1.91058
   A39        2.13309  -0.00026   0.00000  -0.00073  -0.00068   2.13241
   A40        1.54627  -0.00092   0.00000  -0.00379  -0.00348   1.54278
   A41        1.95126  -0.00078   0.00000  -0.00474  -0.00436   1.94691
   A42        2.13294   0.00002   0.00000  -0.00016  -0.00016   2.13278
   A43        2.12833  -0.00007   0.00000  -0.00023  -0.00023   2.12810
   A44        2.02171   0.00005   0.00000   0.00038   0.00038   2.02209
   A45        1.91823  -0.00001   0.00000  -0.00008  -0.00008   1.91815
    D1        0.23643   0.00005   0.00000   0.00568   0.00567   0.24210
    D2       -2.98181   0.00003   0.00000   0.00588   0.00587  -2.97595
    D3       -1.42600  -0.00030   0.00000   0.00081   0.00081  -1.42519
    D4        1.63894  -0.00032   0.00000   0.00101   0.00101   1.63995
    D5        3.06011   0.00011   0.00000  -0.00395  -0.00395   3.05616
    D6       -0.15814   0.00010   0.00000  -0.00375  -0.00375  -0.16189
    D7        0.84911  -0.00019   0.00000  -0.15438  -0.15450   0.69461
    D8       -2.71003   0.00018   0.00000  -0.07470  -0.07458  -2.78462
    D9        2.94248  -0.00032   0.00000  -0.15605  -0.15616   2.78631
   D10       -0.61667   0.00005   0.00000  -0.07636  -0.07625  -0.69292
   D11       -1.23651  -0.00028   0.00000  -0.15578  -0.15590  -1.39240
   D12        1.48753   0.00009   0.00000  -0.07610  -0.07598   1.41155
   D13        2.97858  -0.00006   0.00000  -0.00499  -0.00500   2.97358
   D14       -0.22803  -0.00008   0.00000  -0.00848  -0.00848  -0.23651
   D15        0.15405  -0.00007   0.00000   0.00518   0.00518   0.15923
   D16       -3.05255  -0.00009   0.00000   0.00169   0.00169  -3.05086
   D17       -1.66498   0.00018   0.00000   0.00166   0.00166  -1.66332
   D18        1.41160   0.00016   0.00000  -0.00182  -0.00182   1.40978
   D19        3.08216   0.00000   0.00000  -0.00313  -0.00314   3.07902
   D20        0.00557   0.00002   0.00000   0.00035   0.00035   0.00592
   D21       -0.05841   0.00001   0.00000  -0.00337  -0.00337  -0.06178
   D22       -3.13500   0.00003   0.00000   0.00012   0.00011  -3.13488
   D23        2.13777   0.00000   0.00000   0.00016   0.00016   2.13793
   D24       -2.03269   0.00001   0.00000   0.00032   0.00032  -2.03237
   D25        0.04805  -0.00001   0.00000  -0.00023  -0.00023   0.04781
   D26       -1.00486  -0.00000   0.00000   0.00040   0.00040  -1.00446
   D27        1.10786   0.00000   0.00000   0.00056   0.00056   1.10842
   D28       -3.09459  -0.00002   0.00000   0.00001   0.00001  -3.09458
   D29       -0.03738   0.00004   0.00000  -0.00007  -0.00007  -0.03744
   D30        3.12763  -0.00001   0.00000   0.00017   0.00017   3.12780
   D31        3.10522   0.00004   0.00000  -0.00030  -0.00030   3.10492
   D32       -0.01295  -0.00000   0.00000  -0.00006  -0.00006  -0.01302
   D33       -3.07080  -0.00004   0.00000   0.00013   0.00013  -3.07067
   D34        0.06598  -0.00007   0.00000   0.00052   0.00052   0.06650
   D35       -0.00587  -0.00006   0.00000   0.00032   0.00032  -0.00555
   D36        3.13091  -0.00009   0.00000   0.00071   0.00071   3.13162
   D37        2.76442   0.00008   0.00000   0.07264   0.07245   2.83687
   D38        0.02633   0.00002   0.00000  -0.00607  -0.00608   0.02025
   D39       -2.79605   0.00021   0.00000  -0.06438  -0.06455  -2.86060
   D40       -0.03540  -0.00003   0.00000   0.00795   0.00797  -0.02743
   D41        2.04959  -0.00002   0.00000   0.00035   0.00035   2.04994
   D42       -2.16761  -0.00001   0.00000   0.00023   0.00023  -2.16739
   D43       -0.05065  -0.00001   0.00000   0.00005   0.00005  -0.05060
   D44       -1.08714   0.00001   0.00000  -0.00004  -0.00004  -1.08718
   D45        0.97884   0.00002   0.00000  -0.00016  -0.00016   0.97868
   D46        3.09581   0.00002   0.00000  -0.00034  -0.00034   3.09547
   D47        0.03370  -0.00001   0.00000   0.00146   0.00147   0.03517
   D48       -3.12996   0.00003   0.00000   0.00123   0.00123  -3.12873
   D49       -3.11254  -0.00004   0.00000   0.00184   0.00184  -3.11070
   D50        0.00698   0.00000   0.00000   0.00161   0.00161   0.00858
   D51        0.00538   0.00002   0.00000  -0.00073  -0.00074   0.00464
   D52        3.13629   0.00000   0.00000   0.00074   0.00077   3.13706
   D53       -3.13926  -0.00000   0.00000  -0.00004  -0.00003  -3.13929
   D54       -0.00836  -0.00002   0.00000   0.00143   0.00148  -0.00688
   D55       -3.11574  -0.00001   0.00000  -0.00563  -0.00561  -3.12136
   D56        0.02872   0.00001   0.00000  -0.00627  -0.00628   0.02244
   D57       -0.00892   0.00001   0.00000   0.00239   0.00235  -0.00657
   D58        3.12277  -0.00000   0.00000   0.00375   0.00374   3.12652
   D59       -0.06663   0.00004   0.00000  -0.00014  -0.00014  -0.06677
   D60        3.09698  -0.00000   0.00000   0.00009   0.00009   3.09706
         Item               Value     Threshold  Converged?
 Maximum Force            0.001379     0.000450     NO 
 RMS     Force            0.000246     0.000300     YES
 Maximum Displacement     0.318349     0.001800     NO 
 RMS     Displacement     0.064043     0.001200     NO 
 Predicted change in Energy=-5.461547D-05
 GradGradGradGradGradGradGradGradGradGradGradGradGradGradGradGradGradGrad

                          Input orientation:                          
 ---------------------------------------------------------------------
 Center     Atomic      Atomic             Coordinates (Angstroms)
 Number     Number       Type             X           Y           Z
 ---------------------------------------------------------------------
      1          6           0        4.731593   -2.164245    2.139864
      2          1           0        5.733869   -1.766020    2.253603
      3          6           0        3.275218   -3.829164    1.108357
      4          6           0        3.799348   -2.010717    3.194512
      5          1           0        4.015156   -1.312491    3.997305
      6          6           0        4.153024   -0.383749    0.891175
      7          6           0        4.486605   -3.152868    1.156650
      8          6           0        2.580228   -2.666123    3.174901
      9          6           0        2.699572    0.779223   -0.295684
     10          1           0        1.692675    1.122694   -0.504002
     11          6           0        2.966540   -4.828692    0.019737
     12          1           0        2.721459   -5.819598    0.425502
     13          1           0        2.121818   -4.504445   -0.603618
     14          1           0        3.822376   -4.956004   -0.646745
     15          6           0        1.530984   -2.456022    4.233903
     16          1           0        0.621843   -2.030599    3.795636
     17          1           0        1.241145   -3.403489    4.700360
     18          1           0        1.889354   -1.777109    5.011451
     19          6           0        3.808459    1.135757   -1.003369
     20          1           0        3.876243    1.797259   -1.856018
     21         16           0        5.214803    0.354814   -0.316018
     22          7           0        2.913147   -0.093539    0.763840
     23          6           0        2.321764   -3.559364    2.112254
     24          8           0        1.099126   -4.168786    2.130130
     25          1           0        0.998453   -4.726376    1.348668
     26          1           0        5.233081   -3.340115    0.390561
 ---------------------------------------------------------------------
                    Distance matrix (angstroms):
                    1          2          3          4          5
     1  C    0.000000
     2  H    1.084471   0.000000
     3  C    2.440695   3.407802   0.000000
     4  C    1.415957   2.165077   2.816648   0.000000
     5  H    2.165376   2.490012   3.902201   1.085619   0.000000
     6  C    2.250363   2.503188   3.562105   2.842089   3.244936
     7  C    1.415664   2.163867   1.388224   2.435101   3.417393
     8  C    2.439581   3.406528   2.471089   1.384268   2.137215
     9  C    4.327241   4.709999   4.851796   4.601602   4.953361
    10  H    5.198944   5.681575   5.442889   5.285389   5.620125
    11  C    3.835314   4.693424   1.509779   4.325940   5.411499
    12  H    4.510131   5.371039   2.175952   4.830822   5.894526
    13  H    4.451309   5.358133   2.171910   4.843406   5.911158
    14  H    4.047936   4.716124   2.156278   4.840506   5.905891
    15  C    3.835888   4.697014   3.833655   2.534583   2.744951
    16  H    4.432774   5.346090   4.182906   3.233927   3.474323
    17  H    4.502787   5.371452   4.149835   3.278993   3.544249
    18  H    4.058843   4.731400   4.622303   2.646491   2.400707
    19  C    4.649957   4.768162   5.421639   5.246197   5.571658
    20  H    5.691416   5.747757   6.387909   6.325698   6.629573
    21  S    3.551128   3.371990   4.826646   4.463527   4.777428
    22  N    3.080262   3.601814   3.768910   3.220107   3.627060
    23  C    2.784672   3.857269   1.410558   2.398510   3.386656
    24  O    4.148867   5.222008   2.427908   3.616818   4.488652
    25  H    4.596394   5.657453   2.458942   4.315896   5.269761
    26  H    2.166616   2.489878   2.141875   3.418338   4.313144
                    6          7          8          9         10
     6  C    0.000000
     7  C    2.801744   0.000000
     8  C    3.591424   2.818605   0.000000
     9  C    2.207638   4.556764   4.891791   0.000000
    10  H    3.204560   5.370683   5.355111   1.084070   0.000000
    11  C    4.682378   2.532105   3.844607   5.623120   6.108685
    12  H    5.640450   3.280513   4.186113   6.638149   7.079392
    13  H    4.831184   3.243073   4.226911   5.324075   5.644358
    14  H    4.835291   2.635286   4.625091   5.854636   6.442559
    15  C    4.726864   4.323284   1.505503   5.687668   5.939789
    16  H    4.859758   4.812496   2.150459   5.380609   5.438458
    17  H    5.666371   4.811830   2.159601   6.677016   6.911989
    18  H    4.903297   4.847465   2.154197   5.946173   6.234401
    19  C    2.452941   4.849522   5.781071   1.362925   2.173955
    20  H    3.518590   5.826875   6.849203   2.203541   2.655363
    21  S    1.769228   3.873352   5.315408   2.550867   3.609759
    22  N    1.279739   3.462595   3.541503   1.389215   2.139204
    23  C    3.863817   2.401032   1.412057   4.976369   5.400205
    24  O    5.018745   3.668074   2.354401   5.738361   5.940598
    25  H    5.386931   3.831449   3.175182   5.992438   6.174621
    26  H    3.187043   1.085901   3.904414   4.884522   5.766401
                   11         12         13         14         15
    11  C    0.000000
    12  H    1.098456   0.000000
    13  H    1.098755   1.774341   0.000000
    14  H    1.092181   1.762817   1.760018   0.000000
    15  C    5.044758   5.218697   5.286467   5.943157   0.000000
    16  H    5.252080   5.488415   5.265289   6.207749   1.095262
    17  H    5.188104   5.128676   5.488157   6.137148   1.095117
    18  H    5.948924   6.169687   6.246711   6.771788   1.092672
    19  C    6.109846   7.183328   5.900545   6.102206   6.746613
    20  H    6.946168   8.034636   6.660179   6.860890   7.789594
    21  S    5.660049   6.699999   5.767293   5.500275   6.494082
    22  N    4.793560   5.739248   4.685322   5.143930   4.419620
    23  C    2.530920   2.848428   2.882553   3.437224   2.518749
    24  O    2.894214   2.874526   2.938017   3.968228   2.746984
    25  H    2.376951   2.239670   2.263321   3.465391   3.709808
    26  H    2.736892   3.529490   3.467566   2.382685   5.409106
                   16         17         18         19         20
    16  H    0.000000
    17  H    1.756954   0.000000
    18  H    1.774555   1.778219   0.000000
    19  C    6.573490   7.728413   6.953115   0.000000
    20  H    7.562064   8.773689   7.992870   1.081292   0.000000
    21  S    6.609930   7.421513   6.632166   1.749321   2.498798
    22  N    4.265450   5.408100   4.682388   2.331476   3.371399
    23  C    2.839125   2.808973   3.430562   5.827652   6.845217
    24  O    2.752009   2.685504   3.827086   6.730339   7.693858
    25  H    3.660150   3.611477   4.786215   6.913234   7.817256
    26  H    5.879872   5.874857   5.914062   4.899594   5.768947
                   21         22         23         24         25
    21  S    0.000000
    22  N    2.581615   0.000000
    23  C    5.439391   3.765621   0.000000
    24  O    6.586759   4.665304   1.366220   0.000000
    25  H    6.809352   5.046905   1.922532   0.965259   0.000000
    26  H    3.761927   4.007705   3.389405   4.560963   4.557605
                   26
    26  H    0.000000
 Symmetry turned off by external request.
 Stoichiometry    C11H12NOS(2)
 Framework group  C1[X(C11H12NOS)]
 Deg. of freedom    72
 Full point group                 C1      NOp   1
 Rotational constants (GHZ):           1.0168973           0.3833244           0.3553731
 Standard basis: 6-31G(d,p) (6D, 7F)
   274 basis functions,   500 primitive gaussians,   274 cartesian basis functions
    55 alpha electrons       54 beta electrons
       nuclear repulsion energy       945.2740522821 Hartrees.
 NAtoms=   26 NActive=   26 NUniq=   26 SFac= 1.00D+00 NAtFMM=   60 NAOKFM=F Big=F
 Integral buffers will be    131072 words long.
 Raffenetti 2 integral format.
 Two-electron integral symmetry is turned off.
 Nuclear repulsion after empirical dispersion term =      945.2512160762 Hartrees.
 One-electron integrals computed using PRISM.
 NBasis=   274 RedAO= T EigKep=  4.39D-04  NBF=   274
 NBsUse=   274 1.00D-06 EigRej= -1.00D+00 NBFU=   274
 Initial guess from the checkpoint file:  "/scratch/jcuzick/job_48780924/Gau-1202240.chk"
 B after Tr=     0.000153   -0.003056   -0.017972
         Rot=    0.999988   -0.002127    0.003564   -0.002660 Ang=  -0.56 deg.
 Initial guess <Sx>= 0.0000 <Sy>= 0.0000 <Sz>= 0.5000 <S**2>= 0.7727 S= 0.5113
 ExpMin= 1.17D-01 ExpMax= 2.19D+04 ExpMxC= 3.30D+03 IAcc=3 IRadAn=         5 AccDes= 0.00D+00
 Harris functional with IExCor=  402 and IRadAn=       5 diagonalized for initial guess.
 HarFok:  IExCor=  402 AccDes= 0.00D+00 IRadAn=         5 IDoV= 1 UseB2=F ITyADJ=14
 ICtDFT=  3500011 ScaDFX=  1.000000  1.000000  1.000000  1.000000
 FoFCou: FMM=F IPFlag=           0 FMFlag=      100000 FMFlg1=           0
         NFxFlg=           0 DoJE=T BraDBF=F KetDBF=T FulRan=T
         wScrn=  0.000000 ICntrl=       500 IOpCl=  0 I1Cent=   200000004 NGrid=           0
         NMat0=    1 NMatS0=      1 NMatT0=    0 NMatD0=    1 NMtDS0=    0 NMtDT0=    0
 Symmetry not used in FoFCou.
 Requested convergence on RMS density matrix=1.00D-08 within 128 cycles.
 Requested convergence on MAX density matrix=1.00D-06.
 Requested convergence on             energy=1.00D-06.
 No special actions if energy rises.
 Integral accuracy reduced to 1.0D-05 until final iterations.
 Initial convergence to 1.0D-05 achieved.  Increase integral accuracy.
 SCF Done:  E(UB3LYP) =  -954.502505496     A.U. after   16 cycles
            NFock= 16  Conv=0.66D-08     -V/T= 2.0069
 <Sx>= 0.0000 <Sy>= 0.0000 <Sz>= 0.5000 <S**2>= 0.7735 S= 0.5117
 <L.S>= 0.000000000000E+00
 Annihilation of the first spin contaminant:
 S**2 before annihilation     0.7735,   after     0.7504
 Calling FoFJK, ICntrl=      2127 FMM=F ISym2X=0 I1Cent= 0 IOpClX= 1 NMat=1 NMatS=1 NMatT=0.
 -------------------------------------------------------------------
 Center     Atomic                   Forces (Hartrees/Bohr)
 Number     Number              X              Y              Z
 -------------------------------------------------------------------
      1        6           0.000002093    0.000295264   -0.000251827
      2        1           0.000097472   -0.000114567    0.000062404
      3        6           0.000011657   -0.000014038    0.000021224
      4        6          -0.000141960    0.000081153    0.000102246
      5        1          -0.000001317    0.000006588    0.000005297
      6        6           0.000156844   -0.000159946    0.000378304
      7        6          -0.000011471   -0.000005505   -0.000199138
      8        6           0.000074726    0.000070773    0.000058288
      9        6           0.000072313   -0.000039395   -0.000117084
     10        1           0.000003715    0.000003527   -0.000008231
     11        6           0.000013145   -0.000002754    0.000004969
     12        1          -0.000002274    0.000000085   -0.000003920
     13        1          -0.000005058   -0.000003030   -0.000000036
     14        1           0.000002216   -0.000003534   -0.000000717
     15        6          -0.000000568    0.000002053    0.000003693
     16        1           0.000006958   -0.000000221   -0.000006883
     17        1           0.000002208   -0.000001084    0.000000507
     18        1          -0.000000117   -0.000000061    0.000002924
     19        6          -0.000101137   -0.000001555    0.000045004
     20        1           0.000007542   -0.000003131   -0.000002193
     21       16          -0.000073886   -0.000105497    0.000030917
     22        7          -0.000080958    0.000057377   -0.000047391
     23        6          -0.000013274   -0.000046029   -0.000077286
     24        8          -0.000028861   -0.000017209    0.000001390
     25        1          -0.000000260    0.000004211    0.000004487
     26        1           0.000010254   -0.000003474   -0.000006949
 -------------------------------------------------------------------
 Cartesian Forces:  Max     0.000378304 RMS     0.000082806

 GradGradGradGradGradGradGradGradGradGradGradGradGradGradGradGradGradGrad
 Berny optimization.
 FormGI is forming the generalized inverse of G from B-inverse, IUseBI=4.
 Internal  Forces:  Max     0.000347105 RMS     0.000050634
 Search for a saddle point.
 Step number   4 out of a maximum of  142
 All quantities printed in internal units (Hartrees-Bohrs-Radians)
 Swapping is turned off.
 Update second derivatives using D2CorX and points    2    3    4
 ITU=  0  0  0  0
     Eigenvalues ---   -0.03569   0.00062   0.00137   0.00175   0.00443
     Eigenvalues ---    0.00534   0.00890   0.01341   0.01471   0.01519
     Eigenvalues ---    0.01609   0.01711   0.01847   0.01989   0.02555
     Eigenvalues ---    0.02757   0.03217   0.03946   0.03953   0.05147
     Eigenvalues ---    0.05418   0.05580   0.05753   0.05889   0.05912
     Eigenvalues ---    0.06048   0.06841   0.09199   0.11189   0.11826
     Eigenvalues ---    0.11990   0.12043   0.12273   0.12527   0.14436
     Eigenvalues ---    0.14651   0.14713   0.15178   0.15344   0.16906
     Eigenvalues ---    0.18515   0.19030   0.19112   0.19755   0.21070
     Eigenvalues ---    0.22160   0.22862   0.27351   0.31127   0.31650
     Eigenvalues ---    0.32621   0.33285   0.33505   0.33585   0.34195
     Eigenvalues ---    0.34604   0.34721   0.34920   0.35685   0.36006
     Eigenvalues ---    0.36536   0.36629   0.37363   0.39888   0.41084
     Eigenvalues ---    0.41267   0.45147   0.46320   0.48368   0.51941
     Eigenvalues ---    0.53182   0.57949
 Eigenvectors required to have negative eigenvalues:
                          R3        D1        D14       D2        D13
   1                   -0.90503   0.15670  -0.15660   0.14331  -0.14278
                          D15       D6        R4        R2        D5
   1                    0.09829  -0.09812   0.09147   0.08914  -0.08472
 RFO step:  Lambda0=3.469880528D-06 Lambda=-1.46917861D-05.
 Linear search not attempted -- option 19 set.
 Iteration  1 RMS(Cart)=  0.02100034 RMS(Int)=  0.00018265
 Iteration  2 RMS(Cart)=  0.00040517 RMS(Int)=  0.00002812
 Iteration  3 RMS(Cart)=  0.00000006 RMS(Int)=  0.00002812
 Variable       Old X    -DE/DX   Delta X   Delta X   Delta X     New X
                                 (Linear)    (Quad)   (Total)
    R1        2.04935   0.00005   0.00000   0.00003   0.00003   2.04938
    R2        2.67577   0.00012   0.00000  -0.00046  -0.00046   2.67531
    R3        4.25257  -0.00035   0.00000   0.00753   0.00753   4.26010
    R4        2.67522   0.00013   0.00000  -0.00050  -0.00049   2.67472
    R5        2.62336   0.00000   0.00000   0.00029   0.00029   2.62365
    R6        2.85307   0.00000   0.00000  -0.00000  -0.00000   2.85307
    R7        2.66557   0.00003   0.00000  -0.00024  -0.00024   2.66533
    R8        2.05152   0.00001   0.00000  -0.00000  -0.00000   2.05152
    R9        2.61589  -0.00005   0.00000   0.00007   0.00007   2.61595
   R10        3.34336  -0.00010   0.00000  -0.00021  -0.00019   3.34317
   R11        2.41836   0.00010   0.00000   0.00012   0.00014   2.41850
   R12        2.05206   0.00001   0.00000   0.00000   0.00000   2.05206
   R13        2.84499  -0.00001   0.00000  -0.00002  -0.00002   2.84497
   R14        2.66840   0.00012   0.00000   0.00009   0.00009   2.66849
   R15        2.04860  -0.00000   0.00000  -0.00001  -0.00001   2.04859
   R16        2.57556  -0.00010   0.00000  -0.00042  -0.00045   2.57511
   R17        2.62524   0.00003   0.00000   0.00013   0.00012   2.62536
   R18        2.07578  -0.00000   0.00000   0.00000   0.00000   2.07578
   R19        2.07635   0.00000   0.00000   0.00001   0.00001   2.07636
   R20        2.06392   0.00000   0.00000   0.00000   0.00000   2.06393
   R21        2.06975  -0.00000   0.00000  -0.00001  -0.00001   2.06973
   R22        2.06947   0.00000   0.00000  -0.00000  -0.00000   2.06947
   R23        2.06485   0.00000   0.00000  -0.00000  -0.00000   2.06485
   R24        2.04334   0.00000   0.00000  -0.00000  -0.00000   2.04334
   R25        3.30574   0.00001   0.00000   0.00013   0.00011   3.30585
   R26        2.58178   0.00003   0.00000   0.00004   0.00004   2.58182
   R27        1.82407  -0.00001   0.00000  -0.00001  -0.00001   1.82407
    A1        2.08352  -0.00001   0.00000   0.00065   0.00065   2.08417
    A2        1.57607   0.00012   0.00000   0.00200   0.00201   1.57808
    A3        2.08199  -0.00004   0.00000   0.00016   0.00015   2.08214
    A4        1.72970  -0.00006   0.00000  -0.00141  -0.00141   1.72829
    A5        2.07041   0.00005   0.00000   0.00059   0.00059   2.07100
    A6        1.69377  -0.00007   0.00000  -0.00487  -0.00487   1.68890
    A7        2.12470  -0.00001   0.00000  -0.00003  -0.00003   2.12467
    A8        2.06224   0.00001   0.00000  -0.00010  -0.00010   2.06214
    A9        2.09624   0.00000   0.00000   0.00013   0.00013   2.09637
   A10        2.08248   0.00003   0.00000   0.00020   0.00020   2.08268
   A11        2.11525  -0.00005   0.00000  -0.00023  -0.00023   2.11502
   A12        2.08296   0.00002   0.00000   0.00003   0.00003   2.08299
   A13        2.15868  -0.00010   0.00000  -0.00644  -0.00663   2.15206
   A14        2.07570   0.00010   0.00000  -0.00206  -0.00227   2.07344
   A15        2.00301  -0.00003   0.00000  -0.00072  -0.00082   2.00219
   A16        2.11225  -0.00004   0.00000  -0.00014  -0.00014   2.11211
   A17        2.08453   0.00002   0.00000   0.00017   0.00017   2.08470
   A18        2.08439   0.00002   0.00000   0.00001   0.00001   2.08440
   A19        2.13856  -0.00002   0.00000   0.00002   0.00002   2.13858
   A20        2.06164   0.00002   0.00000  -0.00001  -0.00001   2.06163
   A21        2.08297  -0.00001   0.00000  -0.00001  -0.00001   2.08296
   A22        2.18099  -0.00001   0.00000   0.00006   0.00006   2.18106
   A23        2.08105   0.00001   0.00000   0.00002   0.00002   2.08107
   A24        2.02114   0.00001   0.00000  -0.00008  -0.00008   2.02106
   A25        1.95679   0.00000   0.00000   0.00002   0.00002   1.95681
   A26        1.95076   0.00000   0.00000   0.00005   0.00005   1.95080
   A27        1.93581   0.00000   0.00000  -0.00001  -0.00001   1.93581
   A28        1.87995  -0.00001   0.00000  -0.00004  -0.00004   1.87990
   A29        1.87035  -0.00000   0.00000  -0.00002  -0.00002   1.87033
   A30        1.86568   0.00000   0.00000   0.00001   0.00001   1.86569
   A31        1.92969  -0.00001   0.00000  -0.00009  -0.00009   1.92960
   A32        1.94264  -0.00000   0.00000   0.00002   0.00002   1.94265
   A33        1.93766   0.00000   0.00000  -0.00000  -0.00000   1.93765
   A34        1.86168   0.00001   0.00000   0.00008   0.00008   1.86176
   A35        1.89194   0.00000   0.00000  -0.00002  -0.00002   1.89192
   A36        1.89786  -0.00000   0.00000   0.00002   0.00002   1.89788
   A37        2.24016   0.00001   0.00000   0.00019   0.00020   2.24036
   A38        1.91058   0.00000   0.00000  -0.00023  -0.00025   1.91033
   A39        2.13241  -0.00001   0.00000   0.00004   0.00005   2.13246
   A40        1.54278   0.00003   0.00000   0.00045   0.00050   1.54329
   A41        1.94691  -0.00001   0.00000   0.00051   0.00058   1.94748
   A42        2.13278   0.00002   0.00000   0.00010   0.00010   2.13288
   A43        2.12810  -0.00000   0.00000  -0.00000  -0.00000   2.12809
   A44        2.02209  -0.00002   0.00000  -0.00010  -0.00009   2.02199
   A45        1.91815   0.00000   0.00000  -0.00001  -0.00001   1.91814
    D1        0.24210   0.00004   0.00000  -0.00345  -0.00345   0.23865
    D2       -2.97595   0.00005   0.00000  -0.00337  -0.00337  -2.97932
    D3       -1.42519  -0.00007   0.00000  -0.00511  -0.00511  -1.43030
    D4        1.63995  -0.00006   0.00000  -0.00503  -0.00503   1.63492
    D5        3.05616   0.00003   0.00000   0.00129   0.00129   3.05745
    D6       -0.16189   0.00004   0.00000   0.00136   0.00137  -0.16052
    D7        0.69461   0.00005   0.00000   0.03815   0.03813   0.73274
    D8       -2.78462  -0.00007   0.00000   0.00507   0.00510  -2.77952
    D9        2.78631   0.00005   0.00000   0.03906   0.03902   2.82534
   D10       -0.69292  -0.00006   0.00000   0.00597   0.00600  -0.68692
   D11       -1.39240   0.00008   0.00000   0.03808   0.03805  -1.35435
   D12        1.41155  -0.00004   0.00000   0.00499   0.00503   1.41658
   D13        2.97358  -0.00005   0.00000   0.00310   0.00310   2.97668
   D14       -0.23651  -0.00003   0.00000   0.00376   0.00376  -0.23275
   D15        0.15923  -0.00004   0.00000  -0.00173  -0.00173   0.15750
   D16       -3.05086  -0.00002   0.00000  -0.00106  -0.00106  -3.05193
   D17       -1.66332   0.00005   0.00000   0.00267   0.00267  -1.66065
   D18        1.40978   0.00007   0.00000   0.00333   0.00333   1.41311
   D19        3.07902   0.00003   0.00000   0.00065   0.00065   3.07968
   D20        0.00592   0.00001   0.00000  -0.00001  -0.00002   0.00591
   D21       -0.06178   0.00003   0.00000   0.00114   0.00114  -0.06065
   D22       -3.13488   0.00001   0.00000   0.00047   0.00047  -3.13442
   D23        2.13793   0.00000   0.00000  -0.00007  -0.00007   2.13786
   D24       -2.03237  -0.00000   0.00000  -0.00009  -0.00009  -2.03245
   D25        0.04781   0.00000   0.00000  -0.00005  -0.00005   0.04776
   D26       -1.00446  -0.00000   0.00000  -0.00057  -0.00057  -1.00503
   D27        1.10842  -0.00000   0.00000  -0.00058  -0.00058   1.10785
   D28       -3.09458   0.00000   0.00000  -0.00054  -0.00054  -3.09513
   D29       -0.03744   0.00000   0.00000  -0.00010  -0.00010  -0.03754
   D30        3.12780  -0.00000   0.00000  -0.00030  -0.00030   3.12750
   D31        3.10492   0.00000   0.00000   0.00038   0.00038   3.10530
   D32       -0.01302  -0.00000   0.00000   0.00017   0.00017  -0.01284
   D33       -3.07067  -0.00001   0.00000  -0.00003  -0.00003  -3.07069
   D34        0.06650  -0.00001   0.00000  -0.00043  -0.00043   0.06608
   D35       -0.00555  -0.00000   0.00000   0.00006   0.00006  -0.00549
   D36        3.13162  -0.00000   0.00000  -0.00034  -0.00034   3.13128
   D37        2.83687  -0.00008   0.00000  -0.02988  -0.02985   2.80702
   D38        0.02025   0.00000   0.00000   0.00214   0.00215   0.02241
   D39       -2.86060   0.00013   0.00000   0.02854   0.02860  -2.83200
   D40       -0.02743   0.00001   0.00000  -0.00274  -0.00275  -0.03019
   D41        2.04994  -0.00000   0.00000  -0.00068  -0.00068   2.04925
   D42       -2.16739  -0.00000   0.00000  -0.00064  -0.00064  -2.16802
   D43       -0.05060  -0.00000   0.00000  -0.00060  -0.00060  -0.05120
   D44       -1.08718   0.00000   0.00000  -0.00028  -0.00028  -1.08746
   D45        0.97868  -0.00000   0.00000  -0.00023  -0.00023   0.97845
   D46        3.09547   0.00000   0.00000  -0.00019  -0.00019   3.09527
   D47        0.03517  -0.00001   0.00000  -0.00026  -0.00026   0.03491
   D48       -3.12873  -0.00000   0.00000  -0.00006  -0.00006  -3.12879
   D49       -3.11070  -0.00001   0.00000  -0.00064  -0.00064  -3.11135
   D50        0.00858  -0.00001   0.00000  -0.00045  -0.00045   0.00813
   D51        0.00464  -0.00001   0.00000   0.00041   0.00041   0.00506
   D52        3.13706   0.00001   0.00000  -0.00023  -0.00023   3.13683
   D53       -3.13929   0.00000   0.00000   0.00022   0.00021  -3.13908
   D54       -0.00688   0.00002   0.00000  -0.00042  -0.00043  -0.00731
   D55       -3.12136  -0.00001   0.00000   0.00189   0.00190  -3.11946
   D56        0.02244  -0.00002   0.00000   0.00207   0.00209   0.02453
   D57       -0.00657  -0.00001   0.00000  -0.00087  -0.00087  -0.00744
   D58        3.12652   0.00000   0.00000  -0.00146  -0.00146   3.12505
   D59       -0.06677   0.00000   0.00000   0.00044   0.00044  -0.06634
   D60        3.09706  -0.00000   0.00000   0.00024   0.00024   3.09730
         Item               Value     Threshold  Converged?
 Maximum Force            0.000347     0.000450     YES
 RMS     Force            0.000051     0.000300     YES
 Maximum Displacement     0.116634     0.001800     NO 
 RMS     Displacement     0.021167     0.001200     NO 
 Predicted change in Energy=-5.670053D-06
 GradGradGradGradGradGradGradGradGradGradGradGradGradGradGradGradGradGrad

                          Input orientation:                          
 ---------------------------------------------------------------------
 Center     Atomic      Atomic             Coordinates (Angstroms)
 Number     Number       Type             X           Y           Z
 ---------------------------------------------------------------------
      1          6           0        4.737643   -2.164429    2.153840
      2          1           0        5.740308   -1.768194    2.271201
      3          6           0        3.278008   -3.815890    1.105893
      4          6           0        3.803130   -2.014476    3.206665
      5          1           0        4.019099   -1.322559    4.014856
      6          6           0        4.158686   -0.375815    0.909756
      7          6           0        4.491665   -3.143986    1.162211
      8          6           0        2.581668   -2.665288    3.178935
      9          6           0        2.695257    0.762790   -0.289429
     10          1           0        1.687355    1.105808   -0.493571
     11          6           0        2.968670   -4.806101    0.008980
     12          1           0        2.719372   -5.799253    0.406604
     13          1           0        2.126502   -4.474398   -0.613918
     14          1           0        3.825691   -4.931177   -0.656402
     15          6           0        1.529994   -2.458577    4.236175
     16          1           0        0.624035   -2.026223    3.798119
     17          1           0        1.234833   -3.408196    4.694847
     18          1           0        1.888685   -1.786764    5.019718
     19          6           0        3.796466    1.095849   -1.019724
     20          1           0        3.856677    1.735539   -1.889413
     21         16           0        5.207708    0.325670   -0.330117
     22          7           0        2.918397   -0.084255    0.788913
     23          6           0        2.322979   -3.549981    2.109149
     24          8           0        1.098075   -4.155059    2.119365
     25          1           0        0.997607   -4.706853    1.333778
     26          1           0        5.239374   -3.327948    0.396525
 ---------------------------------------------------------------------
                    Distance matrix (angstroms):
                    1          2          3          4          5
     1  C    0.000000
     2  H    1.084488   0.000000
     3  C    2.440502   3.407921   0.000000
     4  C    1.415712   2.165272   2.816752   0.000000
     5  H    2.165279   2.490278   3.902305   1.085617   0.000000
     6  C    2.254346   2.508741   3.556428   2.843839   3.249224
     7  C    1.415403   2.163740   1.388377   2.435090   3.417382
     8  C    2.439243   3.406723   2.471088   1.384303   2.137262
     9  C    4.325449   4.715404   4.821911   4.600354   4.962671
    10  H    5.196872   5.685972   5.414016   5.282463   5.626714
    11  C    3.835117   4.693454   1.509777   4.326048   5.411609
    12  H    4.509789   5.371426   2.175961   4.831088   5.894876
    13  H    4.451348   5.357896   2.171946   4.843465   5.911139
    14  H    4.047717   4.716045   2.156271   4.840552   5.905945
    15  C    3.835577   4.697286   3.833604   2.534613   2.745024
    16  H    4.432215   5.345494   4.182651   3.233667   3.473986
    17  H    4.502594   5.372427   4.149864   3.279222   3.544631
    18  H    4.058626   4.731774   4.622294   2.646529   2.400811
    19  C    4.646152   4.776133   5.377009   5.247526   5.589746
    20  H    5.686277   5.756294   6.334437   6.327361   6.651221
    21  S    3.548464   3.381536   4.789404   4.467432   4.796691
    22  N    3.082175   3.604997   3.762299   3.217768   3.626521
    23  C    2.784305   3.857352   1.410430   2.398575   3.386731
    24  O    4.148524   5.222117   2.427812   3.616855   4.488688
    25  H    4.596117   5.657534   2.458857   4.315966   5.269823
    26  H    2.166487   2.489614   2.142020   3.418317   4.313117
                    6          7          8          9         10
     6  C    0.000000
     7  C    2.799532   0.000000
     8  C    3.588571   2.818584   0.000000
     9  C    2.208186   4.538417   4.877926   0.000000
    10  H    3.204997   5.354111   5.339312   1.084067   0.000000
    11  C    4.674930   2.532209   3.844668   5.583578   6.070007
    12  H    5.633691   3.280611   4.186469   6.598898   7.039548
    13  H    4.821798   3.243243   4.226795   5.277965   5.598753
    14  H    4.828567   2.635323   4.625112   5.816683   6.406573
    15  C    4.723662   4.323255   1.505492   5.675925   5.924533
    16  H    4.853890   4.812065   2.150378   5.364383   5.418382
    17  H    5.663141   4.812098   2.159599   6.661304   6.892074
    18  H    4.902598   4.847465   2.154185   5.944562   6.229274
    19  C    2.453546   4.818748   5.766335   1.362689   2.173772
    20  H    3.519144   5.790111   6.832355   2.203427   2.655352
    21  S    1.769128   3.844252   5.306162   2.550517   3.609462
    22  N    1.279815   3.460704   3.533740   1.389280   2.139271
    23  C    3.857939   2.400984   1.412106   4.948915   5.371642
    24  O    5.011305   3.668087   2.354391   5.704254   5.903508
    25  H    5.378672   3.831505   3.175192   5.952631   6.132046
    26  H    3.185339   1.085903   3.904398   4.865923   5.750418
                   11         12         13         14         15
    11  C    0.000000
    12  H    1.098456   0.000000
    13  H    1.098761   1.774317   0.000000
    14  H    1.092182   1.762805   1.760027   0.000000
    15  C    5.044784   5.219229   5.286092   5.943171   0.000000
    16  H    5.251916   5.488950   5.264698   6.207425   1.095256
    17  H    5.188226   5.129331   5.487700   6.137417   1.095115
    18  H    5.948972   6.170165   6.246423   6.771829   1.092671
    19  C    6.047850   7.122989   5.829332   6.038037   6.737604
    20  H    6.869171   7.958534   6.571432   6.779851   7.779903
    21  S    5.609221   6.652012   5.710957   5.445262   6.490657
    22  N    4.786089   5.731228   4.676365   5.138557   4.410066
    23  C    2.530903   2.848686   2.882403   3.437168   2.518775
    24  O    2.894254   2.874983   2.937767   3.968265   2.746906
    25  H    2.376979   2.239970   2.263175   3.465429   3.709729
    26  H    2.737011   3.529570   3.467754   2.382750   5.409087
                   16         17         18         19         20
    16  H    0.000000
    17  H    1.756999   0.000000
    18  H    1.774538   1.778231   0.000000
    19  C    6.559212   7.713930   6.958732   0.000000
    20  H    7.546447   8.756973   8.000982   1.081290   0.000000
    21  S    6.601802   7.414564   6.640710   1.749382   2.498884
    22  N    4.253312   5.398082   4.675313   2.331270   3.371269
    23  C    2.839167   2.808914   3.430591   5.791783   6.802754
    24  O    2.752249   2.685073   3.827001   6.686346   7.640637
    25  H    3.660371   3.611035   4.786135   6.858858   7.750334
    26  H    5.879345   5.875233   5.914075   4.863921   5.725057
                   21         22         23         24         25
    21  S    0.000000
    22  N    2.580932   0.000000
    23  C    5.412241   3.756168   0.000000
    24  O    6.554844   4.653506   1.366241   0.000000
    25  H    6.769032   5.035348   1.922541   0.965255   0.000000
    26  H    3.725311   4.007798   3.389357   4.560992   4.557676
                   26
    26  H    0.000000
 Symmetry turned off by external request.
 Stoichiometry    C11H12NOS(2)
 Framework group  C1[X(C11H12NOS)]
 Deg. of freedom    72
 Full point group                 C1      NOp   1
 Rotational constants (GHZ):           1.0131774           0.3862025           0.3580701
 Standard basis: 6-31G(d,p) (6D, 7F)
   274 basis functions,   500 primitive gaussians,   274 cartesian basis functions
    55 alpha electrons       54 beta electrons
       nuclear repulsion energy       946.2042062573 Hartrees.
 NAtoms=   26 NActive=   26 NUniq=   26 SFac= 1.00D+00 NAtFMM=   60 NAOKFM=F Big=F
 Integral buffers will be    131072 words long.
 Raffenetti 2 integral format.
 Two-electron integral symmetry is turned off.
 Nuclear repulsion after empirical dispersion term =      946.1812899717 Hartrees.
 One-electron integrals computed using PRISM.
 NBasis=   274 RedAO= T EigKep=  4.38D-04  NBF=   274
 NBsUse=   274 1.00D-06 EigRej= -1.00D+00 NBFU=   274
 Initial guess from the checkpoint file:  "/scratch/jcuzick/job_48780924/Gau-1202240.chk"
 B after Tr=     0.000737   -0.000786    0.003017
         Rot=    1.000000    0.000572   -0.000530    0.000542 Ang=   0.11 deg.
 Initial guess <Sx>= 0.0000 <Sy>= 0.0000 <Sz>= 0.5000 <S**2>= 0.7735 S= 0.5117
 ExpMin= 1.17D-01 ExpMax= 2.19D+04 ExpMxC= 3.30D+03 IAcc=3 IRadAn=         5 AccDes= 0.00D+00
 Harris functional with IExCor=  402 and IRadAn=       5 diagonalized for initial guess.
 HarFok:  IExCor=  402 AccDes= 0.00D+00 IRadAn=         5 IDoV= 1 UseB2=F ITyADJ=14
 ICtDFT=  3500011 ScaDFX=  1.000000  1.000000  1.000000  1.000000
 FoFCou: FMM=F IPFlag=           0 FMFlag=      100000 FMFlg1=           0
         NFxFlg=           0 DoJE=T BraDBF=F KetDBF=T FulRan=T
         wScrn=  0.000000 ICntrl=       500 IOpCl=  0 I1Cent=   200000004 NGrid=           0
         NMat0=    1 NMatS0=      1 NMatT0=    0 NMatD0=    1 NMtDS0=    0 NMtDT0=    0
 Symmetry not used in FoFCou.
 Requested convergence on RMS density matrix=1.00D-08 within 128 cycles.
 Requested convergence on MAX density matrix=1.00D-06.
 Requested convergence on             energy=1.00D-06.
 No special actions if energy rises.
 Integral accuracy reduced to 1.0D-05 until final iterations.
 Initial convergence to 1.0D-05 achieved.  Increase integral accuracy.
 SCF Done:  E(UB3LYP) =  -954.502514138     A.U. after   15 cycles
            NFock= 15  Conv=0.46D-08     -V/T= 2.0069
 <Sx>= 0.0000 <Sy>= 0.0000 <Sz>= 0.5000 <S**2>= 0.7730 S= 0.5115
 <L.S>= 0.000000000000E+00
 Annihilation of the first spin contaminant:
 S**2 before annihilation     0.7730,   after     0.7504
 Calling FoFJK, ICntrl=      2127 FMM=F ISym2X=0 I1Cent= 0 IOpClX= 1 NMat=1 NMatS=1 NMatT=0.
 -------------------------------------------------------------------
 Center     Atomic                   Forces (Hartrees/Bohr)
 Number     Number              X              Y              Z
 -------------------------------------------------------------------
      1        6           0.000030734    0.000012388   -0.000067389
      2        1           0.000035032   -0.000060564    0.000048197
      3        6           0.000026279   -0.000006665   -0.000009538
      4        6          -0.000021304    0.000059732   -0.000013631
      5        1           0.000001277    0.000001481    0.000004075
      6        6          -0.000199657    0.000083324   -0.000030155
      7        6          -0.000013126    0.000032930   -0.000063729
      8        6           0.000015726    0.000026235    0.000016777
      9        6          -0.000063064   -0.000102092    0.000043454
     10        1          -0.000001520   -0.000005025    0.000004286
     11        6           0.000004066   -0.000002471    0.000000191
     12        1          -0.000001012    0.000000290   -0.000001123
     13        1          -0.000001173   -0.000001681   -0.000000597
     14        1          -0.000000006   -0.000000254    0.000000089
     15        6          -0.000000736   -0.000000964    0.000001799
     16        1           0.000004185    0.000000414   -0.000004271
     17        1           0.000000770   -0.000000158    0.000001046
     18        1          -0.000000367   -0.000000485    0.000000557
     19        6           0.000050394   -0.000006333   -0.000011969
     20        1           0.000010774   -0.000002789    0.000001272
     21       16           0.000132515   -0.000039844    0.000013785
     22        7           0.000003937    0.000004413    0.000076186
     23        6          -0.000029197   -0.000003220   -0.000007713
     24        8           0.000017792    0.000009585   -0.000000032
     25        1           0.000000103   -0.000000487   -0.000000949
     26        1          -0.000002421    0.000002242   -0.000000616
 -------------------------------------------------------------------
 Cartesian Forces:  Max     0.000199657 RMS     0.000038885

 GradGradGradGradGradGradGradGradGradGradGradGradGradGradGradGradGradGrad
 Berny optimization.
 FormGI is forming the generalized inverse of G from B-inverse, IUseBI=4.
 Internal  Forces:  Max     0.000166105 RMS     0.000034720
 Search for a saddle point.
 Step number   5 out of a maximum of  142
 All quantities printed in internal units (Hartrees-Bohrs-Radians)
 Swapping is turned off.
 Update second derivatives using D2CorX and points    2    3    4    5
 ITU=  0  0  0  0  0
     Eigenvalues ---   -0.03515   0.00057   0.00137   0.00174   0.00291
     Eigenvalues ---    0.00534   0.00887   0.01341   0.01471   0.01519
     Eigenvalues ---    0.01609   0.01710   0.01847   0.01988   0.02554
     Eigenvalues ---    0.02757   0.03210   0.03936   0.03944   0.05146
     Eigenvalues ---    0.05336   0.05561   0.05751   0.05889   0.05911
     Eigenvalues ---    0.06048   0.06839   0.09199   0.11187   0.11826
     Eigenvalues ---    0.11987   0.12035   0.12272   0.12527   0.14436
     Eigenvalues ---    0.14651   0.14713   0.15161   0.15344   0.16906
     Eigenvalues ---    0.18515   0.19019   0.19112   0.19755   0.21070
     Eigenvalues ---    0.22116   0.22861   0.27348   0.31127   0.31649
     Eigenvalues ---    0.32621   0.33285   0.33505   0.33585   0.34195
     Eigenvalues ---    0.34604   0.34721   0.34919   0.35685   0.36006
     Eigenvalues ---    0.36535   0.36629   0.37363   0.39885   0.41068
     Eigenvalues ---    0.41226   0.45146   0.46319   0.48344   0.51940
     Eigenvalues ---    0.53182   0.57944
 Eigenvectors required to have negative eigenvalues:
                          R3        D14       D1        D2        D13
   1                   -0.90536  -0.15534   0.15502   0.14159  -0.14103
                          D15       D6        R4        R2        D5
   1                    0.09963  -0.09943   0.09142   0.08916  -0.08600
 RFO step:  Lambda0=1.601962429D-07 Lambda=-7.84025851D-06.
 Linear search not attempted -- option 19 set.
 Iteration  1 RMS(Cart)=  0.02312205 RMS(Int)=  0.00018644
 Iteration  2 RMS(Cart)=  0.00041685 RMS(Int)=  0.00002774
 Iteration  3 RMS(Cart)=  0.00000006 RMS(Int)=  0.00002774
 Variable       Old X    -DE/DX   Delta X   Delta X   Delta X     New X
                                 (Linear)    (Quad)   (Total)
    R1        2.04938   0.00002   0.00000   0.00005   0.00005   2.04943
    R2        2.67531  -0.00001   0.00000  -0.00018  -0.00017   2.67513
    R3        4.26010  -0.00009   0.00000   0.00226   0.00226   4.26236
    R4        2.67472   0.00001   0.00000  -0.00014  -0.00014   2.67459
    R5        2.62365  -0.00002   0.00000   0.00005   0.00005   2.62370
    R6        2.85307   0.00000   0.00000  -0.00001  -0.00001   2.85305
    R7        2.66533   0.00003   0.00000  -0.00001  -0.00002   2.66531
    R8        2.05152   0.00000   0.00000   0.00000   0.00000   2.05152
    R9        2.61595  -0.00003   0.00000  -0.00007  -0.00007   2.61588
   R10        3.34317  -0.00000   0.00000   0.00011   0.00013   3.34330
   R11        2.41850  -0.00007   0.00000  -0.00022  -0.00019   2.41831
   R12        2.05206  -0.00000   0.00000  -0.00004  -0.00004   2.05202
   R13        2.84497  -0.00000   0.00000  -0.00004  -0.00004   2.84492
   R14        2.66849   0.00003   0.00000   0.00007   0.00007   2.66856
   R15        2.04859  -0.00000   0.00000  -0.00000  -0.00000   2.04859
   R16        2.57511   0.00011   0.00000   0.00010   0.00007   2.57518
   R17        2.62536  -0.00007   0.00000   0.00000  -0.00001   2.62535
   R18        2.07578  -0.00000   0.00000  -0.00000  -0.00000   2.07578
   R19        2.07636   0.00000   0.00000   0.00001   0.00001   2.07637
   R20        2.06393  -0.00000   0.00000  -0.00000  -0.00000   2.06392
   R21        2.06973  -0.00000   0.00000  -0.00001  -0.00001   2.06973
   R22        2.06947   0.00000   0.00000  -0.00001  -0.00001   2.06945
   R23        2.06485   0.00000   0.00000  -0.00000  -0.00000   2.06485
   R24        2.04334  -0.00000   0.00000  -0.00000  -0.00000   2.04334
   R25        3.30585   0.00001   0.00000   0.00031   0.00029   3.30614
   R26        2.58182  -0.00002   0.00000  -0.00008  -0.00008   2.58174
   R27        1.82407   0.00000   0.00000  -0.00000  -0.00000   1.82407
    A1        2.08417  -0.00002   0.00000   0.00007   0.00007   2.08424
    A2        1.57808   0.00009   0.00000   0.00467   0.00467   1.58274
    A3        2.08214  -0.00002   0.00000   0.00036   0.00037   2.08251
    A4        1.72829  -0.00006   0.00000  -0.00213  -0.00213   1.72615
    A5        2.07100   0.00005   0.00000   0.00036   0.00035   2.07135
    A6        1.68890  -0.00005   0.00000  -0.00497  -0.00497   1.68393
    A7        2.12467   0.00000   0.00000   0.00001   0.00001   2.12468
    A8        2.06214  -0.00001   0.00000  -0.00008  -0.00008   2.06207
    A9        2.09637   0.00001   0.00000   0.00007   0.00007   2.09644
   A10        2.08268   0.00001   0.00000   0.00009   0.00009   2.08277
   A11        2.11502  -0.00002   0.00000  -0.00019  -0.00019   2.11483
   A12        2.08299   0.00001   0.00000   0.00007   0.00007   2.08305
   A13        2.15206  -0.00015   0.00000  -0.00770  -0.00787   2.14419
   A14        2.07344  -0.00003   0.00000  -0.00249  -0.00268   2.07076
   A15        2.00219   0.00017   0.00000   0.00033   0.00022   2.00242
   A16        2.11211  -0.00002   0.00000  -0.00021  -0.00021   2.11190
   A17        2.08470   0.00001   0.00000   0.00013   0.00012   2.08483
   A18        2.08440   0.00001   0.00000   0.00006   0.00006   2.08446
   A19        2.13858   0.00000   0.00000   0.00006   0.00006   2.13864
   A20        2.06163  -0.00000   0.00000  -0.00007  -0.00007   2.06156
   A21        2.08296   0.00000   0.00000   0.00001   0.00001   2.08297
   A22        2.18106   0.00001   0.00000   0.00005   0.00005   2.18111
   A23        2.08107  -0.00000   0.00000   0.00000   0.00000   2.08107
   A24        2.02106  -0.00000   0.00000  -0.00005  -0.00006   2.02100
   A25        1.95681   0.00000   0.00000   0.00002   0.00002   1.95683
   A26        1.95080   0.00000   0.00000   0.00002   0.00002   1.95082
   A27        1.93581   0.00000   0.00000  -0.00002  -0.00002   1.93579
   A28        1.87990  -0.00000   0.00000  -0.00003  -0.00003   1.87988
   A29        1.87033  -0.00000   0.00000   0.00003   0.00003   1.87036
   A30        1.86569  -0.00000   0.00000  -0.00002  -0.00002   1.86567
   A31        1.92960  -0.00001   0.00000  -0.00017  -0.00017   1.92943
   A32        1.94265   0.00000   0.00000   0.00008   0.00008   1.94273
   A33        1.93765   0.00000   0.00000  -0.00002  -0.00002   1.93764
   A34        1.86176   0.00000   0.00000   0.00011   0.00011   1.86188
   A35        1.89192   0.00000   0.00000  -0.00004  -0.00004   1.89188
   A36        1.89788  -0.00000   0.00000   0.00004   0.00004   1.89792
   A37        2.24036  -0.00001   0.00000   0.00000   0.00001   2.24036
   A38        1.91033   0.00004   0.00000   0.00010   0.00008   1.91042
   A39        2.13246  -0.00003   0.00000  -0.00011  -0.00010   2.13235
   A40        1.54329  -0.00011   0.00000  -0.00029  -0.00024   1.54305
   A41        1.94748  -0.00009   0.00000  -0.00013  -0.00006   1.94742
   A42        2.13288   0.00001   0.00000   0.00013   0.00013   2.13301
   A43        2.12809  -0.00001   0.00000  -0.00008  -0.00008   2.12801
   A44        2.02199  -0.00001   0.00000  -0.00005  -0.00005   2.02194
   A45        1.91814  -0.00000   0.00000   0.00001   0.00001   1.91815
    D1        0.23865   0.00001   0.00000  -0.00277  -0.00277   0.23588
    D2       -2.97932   0.00001   0.00000  -0.00333  -0.00333  -2.98265
    D3       -1.43030  -0.00006   0.00000  -0.00699  -0.00699  -1.43729
    D4        1.63492  -0.00005   0.00000  -0.00756  -0.00756   1.62736
    D5        3.05745   0.00003   0.00000   0.00002   0.00002   3.05746
    D6       -0.16052   0.00003   0.00000  -0.00055  -0.00055  -0.16107
    D7        0.73274   0.00000   0.00000   0.03757   0.03753   0.77027
    D8       -2.77952  -0.00001   0.00000   0.00594   0.00597  -2.77355
    D9        2.82534  -0.00001   0.00000   0.03830   0.03826   2.86360
   D10       -0.68692  -0.00003   0.00000   0.00667   0.00670  -0.68022
   D11       -1.35435   0.00001   0.00000   0.03692   0.03689  -1.31746
   D12        1.41658  -0.00001   0.00000   0.00529   0.00533   1.42191
   D13        2.97668  -0.00002   0.00000   0.00290   0.00290   2.97958
   D14       -0.23275  -0.00002   0.00000   0.00250   0.00250  -0.23025
   D15        0.15750  -0.00003   0.00000   0.00017   0.00017   0.15767
   D16       -3.05193  -0.00003   0.00000  -0.00023  -0.00023  -3.05216
   D17       -1.66065   0.00006   0.00000   0.00552   0.00552  -1.65514
   D18        1.41311   0.00006   0.00000   0.00512   0.00512   1.41822
   D19        3.07968   0.00001   0.00000  -0.00015  -0.00015   3.07953
   D20        0.00591   0.00001   0.00000   0.00025   0.00025   0.00615
   D21       -0.06065   0.00002   0.00000   0.00049   0.00049  -0.06015
   D22       -3.13442   0.00002   0.00000   0.00089   0.00089  -3.13353
   D23        2.13786   0.00000   0.00000   0.00003   0.00003   2.13789
   D24       -2.03245   0.00000   0.00000   0.00003   0.00003  -2.03242
   D25        0.04776   0.00000   0.00000  -0.00000  -0.00000   0.04776
   D26       -1.00503  -0.00000   0.00000  -0.00063  -0.00063  -1.00565
   D27        1.10785  -0.00000   0.00000  -0.00063  -0.00063   1.10722
   D28       -3.09513  -0.00000   0.00000  -0.00066  -0.00066  -3.09579
   D29       -0.03754   0.00000   0.00000  -0.00077  -0.00077  -0.03832
   D30        3.12750  -0.00000   0.00000  -0.00063  -0.00063   3.12687
   D31        3.10530   0.00001   0.00000  -0.00014  -0.00014   3.10516
   D32       -0.01284   0.00000   0.00000   0.00000   0.00000  -0.01284
   D33       -3.07069  -0.00001   0.00000   0.00074   0.00074  -3.06996
   D34        0.06608  -0.00001   0.00000   0.00023   0.00023   0.06631
   D35       -0.00549  -0.00001   0.00000   0.00017   0.00017  -0.00532
   D36        3.13128  -0.00001   0.00000  -0.00033  -0.00033   3.13095
   D37        2.80702  -0.00006   0.00000  -0.02972  -0.02970   2.77732
   D38        0.02241  -0.00001   0.00000   0.00120   0.00121   0.02362
   D39       -2.83200   0.00009   0.00000   0.02901   0.02907  -2.80293
   D40       -0.03019   0.00001   0.00000  -0.00161  -0.00163  -0.03181
   D41        2.04925  -0.00000   0.00000  -0.00160  -0.00160   2.04765
   D42       -2.16802  -0.00000   0.00000  -0.00152  -0.00152  -2.16954
   D43       -0.05120  -0.00000   0.00000  -0.00142  -0.00142  -0.05262
   D44       -1.08746   0.00000   0.00000  -0.00109  -0.00109  -1.08855
   D45        0.97845   0.00000   0.00000  -0.00101  -0.00101   0.97744
   D46        3.09527   0.00000   0.00000  -0.00092  -0.00092   3.09436
   D47        0.03491  -0.00001   0.00000   0.00042   0.00042   0.03533
   D48       -3.12879  -0.00000   0.00000   0.00028   0.00028  -3.12852
   D49       -3.11135  -0.00001   0.00000  -0.00007  -0.00007  -3.11141
   D50        0.00813  -0.00000   0.00000  -0.00021  -0.00021   0.00793
   D51        0.00506  -0.00000   0.00000   0.00053   0.00054   0.00559
   D52        3.13683  -0.00000   0.00000  -0.00039  -0.00038   3.13645
   D53       -3.13908   0.00001   0.00000   0.00055   0.00054  -3.13854
   D54       -0.00731   0.00001   0.00000  -0.00037  -0.00038  -0.00769
   D55       -3.11946  -0.00001   0.00000   0.00130   0.00131  -3.11814
   D56        0.02453  -0.00002   0.00000   0.00129   0.00131   0.02584
   D57       -0.00744   0.00000   0.00000  -0.00041  -0.00041  -0.00785
   D58        3.12505   0.00000   0.00000  -0.00126  -0.00126   3.12379
   D59       -0.06634   0.00000   0.00000   0.00027   0.00027  -0.06607
   D60        3.09730  -0.00000   0.00000   0.00040   0.00040   3.09771
         Item               Value     Threshold  Converged?
 Maximum Force            0.000166     0.000450     YES
 RMS     Force            0.000035     0.000300     YES
 Maximum Displacement     0.127769     0.001800     NO 
 RMS     Displacement     0.023338     0.001200     NO 
 Predicted change in Energy=-3.873201D-06
 GradGradGradGradGradGradGradGradGradGradGradGradGradGradGradGradGradGrad

                          Input orientation:                          
 ---------------------------------------------------------------------
 Center     Atomic      Atomic             Coordinates (Angstroms)
 Number     Number       Type             X           Y           Z
 ---------------------------------------------------------------------
      1          6           0        4.745248   -2.164320    2.167659
      2          1           0        5.748580   -1.771194    2.289916
      3          6           0        3.281849   -3.801164    1.102602
      4          6           0        3.808249   -2.017960    3.218655
      5          1           0        4.024741   -1.333025    4.032633
      6          6           0        4.164161   -0.370631    0.929720
      7          6           0        4.498370   -3.135225    1.167881
      8          6           0        2.583811   -2.662624    3.181859
      9          6           0        2.688663    0.740614   -0.280056
     10          1           0        1.679289    1.081884   -0.479794
     11          6           0        2.971535   -4.781595   -0.002781
     12          1           0        2.716435   -5.776590    0.386463
     13          1           0        2.132889   -4.441338   -0.625828
     14          1           0        3.830112   -4.905501   -0.666369
     15          6           0        1.529280   -2.458487    4.236719
     16          1           0        0.627683   -2.017137    3.798641
     17          1           0        1.226746   -3.410067    4.686418
     18          1           0        1.888825   -1.795212    5.027114
     19          6           0        3.781318    1.050735   -1.033015
     20          1           0        3.832309    1.667927   -1.919389
     21         16           0        5.199246    0.293977   -0.341878
     22          7           0        2.923214   -0.079144    0.816791
     23          6           0        2.324596   -3.537877    2.104418
     24          8           0        1.096692   -4.136833    2.105696
     25          1           0        0.996412   -4.682432    1.315771
     26          1           0        5.247629   -3.316547    0.403109
 ---------------------------------------------------------------------
                    Distance matrix (angstroms):
                    1          2          3          4          5
     1  C    0.000000
     2  H    1.084514   0.000000
     3  C    2.440316   3.408116   0.000000
     4  C    1.415620   2.165256   2.816841   0.000000
     5  H    2.165250   2.490116   3.902394   1.085618   0.000000
     6  C    2.255544   2.514378   3.546395   2.842462   3.251725
     7  C    1.415331   2.163924   1.388402   2.435204   3.417463
     8  C    2.438999   3.406754   2.471202   1.384266   2.137271
     9  C    4.319664   4.719854   4.784491   4.593928   4.968336
    10  H    5.191046   5.689506   5.377390   5.274469   5.629825
    11  C    3.834970   4.693714   1.509772   4.326132   5.411695
    12  H    4.509682   5.372172   2.175973   4.831218   5.895040
    13  H    4.451157   5.357654   2.171958   4.843515   5.911174
    14  H    4.047625   4.716357   2.156250   4.840639   5.906021
    15  C    3.835361   4.697330   3.833663   2.534604   2.745113
    16  H    4.431265   5.344187   4.182819   3.233015   3.473149
    17  H    4.502876   5.373650   4.149716   3.279703   3.545465
    18  H    4.058556   4.731864   4.622354   2.646570   2.400989
    19  C    4.637894   4.782810   5.324589   5.243502   5.603781
    20  H    5.676578   5.763497   6.272669   6.323435   6.668531
    21  S    3.542192   3.390139   4.746906   4.467362   4.812790
    22  N    3.081009   3.607745   3.750165   3.211112   3.623151
    23  C    2.783921   3.857363   1.410421   2.398520   3.386722
    24  O    4.148085   5.222092   2.427711   3.616744   4.488641
    25  H    4.595691   5.657506   2.458719   4.315879   5.269787
    26  H    2.166483   2.489801   2.142064   3.418397   4.313149
                    6          7          8          9         10
     6  C    0.000000
     7  C    2.794888   0.000000
     8  C    3.580903   2.818686   0.000000
     9  C    2.208056   4.515936   4.855705   0.000000
    10  H    3.204858   5.333484   5.314810   1.084065   0.000000
    11  C    4.663531   2.532234   3.844775   5.536396   6.023108
    12  H    5.622760   3.280658   4.186719   6.551257   6.990332
    13  H    4.807957   3.243273   4.226776   5.223128   5.543741
    14  H    4.819143   2.635322   4.625216   5.773279   6.364717
    15  C    4.715717   4.323336   1.505469   5.655057   5.899341
    16  H    4.842352   4.811781   2.150235   5.337471   5.386540
    17  H    5.655030   4.812397   2.159629   6.635602   6.860916
    18  H    4.898493   4.847580   2.154153   5.936009   6.216722
    19  C    2.453401   4.783343   5.743537   1.362724   2.173833
    20  H    3.518986   5.748490   6.806992   2.203463   2.655442
    21  S    1.769199   3.811827   5.291381   2.550751   3.609697
    22  N    1.279713   3.456010   3.518964   1.389276   2.139268
    23  C    3.846475   2.400942   1.412141   4.911593   5.332614
    24  O    4.997656   3.667987   2.354346   5.658239   5.853135
    25  H    5.364262   3.831375   3.175177   5.900831   6.075995
    26  H    3.182710   1.085884   3.904484   4.845160   5.732256
                   11         12         13         14         15
    11  C    0.000000
    12  H    1.098454   0.000000
    13  H    1.098767   1.774304   0.000000
    14  H    1.092180   1.762818   1.760016   0.000000
    15  C    5.044828   5.219542   5.285869   5.943230   0.000000
    16  H    5.252302   5.489931   5.264820   6.207618   1.095253
    17  H    5.187866   5.129251   5.486763   6.137277   1.095108
    18  H    5.948998   6.170247   6.246383   6.771872   1.092671
    19  C    5.977726   7.054166   5.748564   5.967710   6.719852
    20  H    6.783115   7.872926   6.471820   6.691787   7.760728
    21  S    5.553298   6.598986   5.648574   5.386501   6.481378
    22  N    4.773581   5.717415   4.662028   5.129907   4.393203
    23  C    2.530938   2.848990   2.882227   3.437184   2.518793
    24  O    2.894206   2.875436   2.937286   3.968221   2.746860
    25  H    2.376872   2.240374   2.262634   3.465328   3.709693
    26  H    2.737101   3.529736   3.467776   2.382838   5.409155
                   16         17         18         19         20
    16  H    0.000000
    17  H    1.757065   0.000000
    18  H    1.774507   1.778252   0.000000
    19  C    6.534689   7.690027   6.957450   0.000000
    20  H    7.519654   8.729929   8.001523   1.081288   0.000000
    21  S    6.586679   7.401653   6.644523   1.749534   2.498958
    22  N    4.232814   5.380248   4.662797   2.331255   3.371259
    23  C    2.839464   2.808618   3.430587   5.746381   6.750157
    24  O    2.753025   2.684255   3.826924   6.630957   7.574968
    25  H    3.661203   3.610156   4.786074   6.792769   7.670439
    26  H    5.878946   5.875626   5.914173   4.825523   5.678213
                   21         22         23         24         25
    21  S    0.000000
    22  N    2.581095   0.000000
    23  C    5.378763   3.738872   0.000000
    24  O    6.515646   4.632742   1.366198   0.000000
    25  H    6.721329   5.015158   1.922510   0.965255   0.000000
    26  H    3.686900   4.006846   3.389331   4.560916   4.557570
                   26
    26  H    0.000000
 Symmetry turned off by external request.
 Stoichiometry    C11H12NOS(2)
 Framework group  C1[X(C11H12NOS)]
 Deg. of freedom    72
 Full point group                 C1      NOp   1
 Rotational constants (GHZ):           1.0089760           0.3900062           0.3616372
 Standard basis: 6-31G(d,p) (6D, 7F)
   274 basis functions,   500 primitive gaussians,   274 cartesian basis functions
    55 alpha electrons       54 beta electrons
       nuclear repulsion energy       947.5146852812 Hartrees.
 NAtoms=   26 NActive=   26 NUniq=   26 SFac= 1.00D+00 NAtFMM=   60 NAOKFM=F Big=F
 Integral buffers will be    131072 words long.
 Raffenetti 2 integral format.
 Two-electron integral symmetry is turned off.
 Nuclear repulsion after empirical dispersion term =      947.4916541725 Hartrees.
 One-electron integrals computed using PRISM.
 NBasis=   274 RedAO= T EigKep=  4.38D-04  NBF=   274
 NBsUse=   274 1.00D-06 EigRej= -1.00D+00 NBFU=   274
 Initial guess from the checkpoint file:  "/scratch/jcuzick/job_48780924/Gau-1202240.chk"
 B after Tr=     0.000693   -0.001273    0.003519
         Rot=    1.000000    0.000560   -0.000513    0.000561 Ang=   0.11 deg.
 Initial guess <Sx>= 0.0000 <Sy>= 0.0000 <Sz>= 0.5000 <S**2>= 0.7731 S= 0.5115
 ExpMin= 1.17D-01 ExpMax= 2.19D+04 ExpMxC= 3.30D+03 IAcc=3 IRadAn=         5 AccDes= 0.00D+00
 Harris functional with IExCor=  402 and IRadAn=       5 diagonalized for initial guess.
 HarFok:  IExCor=  402 AccDes= 0.00D+00 IRadAn=         5 IDoV= 1 UseB2=F ITyADJ=14
 ICtDFT=  3500011 ScaDFX=  1.000000  1.000000  1.000000  1.000000
 FoFCou: FMM=F IPFlag=           0 FMFlag=      100000 FMFlg1=           0
         NFxFlg=           0 DoJE=T BraDBF=F KetDBF=T FulRan=T
         wScrn=  0.000000 ICntrl=       500 IOpCl=  0 I1Cent=   200000004 NGrid=           0
         NMat0=    1 NMatS0=      1 NMatT0=    0 NMatD0=    1 NMtDS0=    0 NMtDT0=    0
 Symmetry not used in FoFCou.
 Requested convergence on RMS density matrix=1.00D-08 within 128 cycles.
 Requested convergence on MAX density matrix=1.00D-06.
 Requested convergence on             energy=1.00D-06.
 No special actions if energy rises.
 Integral accuracy reduced to 1.0D-05 until final iterations.
 Initial convergence to 1.0D-05 achieved.  Increase integral accuracy.
 SCF Done:  E(UB3LYP) =  -954.502517358     A.U. after   15 cycles
            NFock= 15  Conv=0.49D-08     -V/T= 2.0069
 <Sx>= 0.0000 <Sy>= 0.0000 <Sz>= 0.5000 <S**2>= 0.7728 S= 0.5113
 <L.S>= 0.000000000000E+00
 Annihilation of the first spin contaminant:
 S**2 before annihilation     0.7728,   after     0.7504
 Calling FoFJK, ICntrl=      2127 FMM=F ISym2X=0 I1Cent= 0 IOpClX= 1 NMat=1 NMatS=1 NMatT=0.
 -------------------------------------------------------------------
 Center     Atomic                   Forces (Hartrees/Bohr)
 Number     Number              X              Y              Z
 -------------------------------------------------------------------
      1        6          -0.000021589   -0.000169411    0.000107117
      2        1          -0.000007635   -0.000019869   -0.000009408
      3        6          -0.000023930   -0.000009413    0.000003572
      4        6           0.000083315    0.000017960   -0.000068325
      5        1          -0.000002736    0.000002990   -0.000002857
      6        6          -0.000076992    0.000089115   -0.000085008
      7        6           0.000023052    0.000082430    0.000051520
      8        6          -0.000019991   -0.000016170   -0.000005909
      9        6          -0.000008609   -0.000008688    0.000007598
     10        1          -0.000001594    0.000000619    0.000001136
     11        6          -0.000001109   -0.000001422   -0.000001282
     12        1           0.000000134    0.000000135    0.000000310
     13        1           0.000001826    0.000000210   -0.000001144
     14        1          -0.000000437    0.000000328    0.000000564
     15        6          -0.000002367   -0.000000300    0.000000372
     16        1           0.000002266    0.000000934   -0.000001639
     17        1           0.000000780    0.000000100    0.000000394
     18        1          -0.000000931    0.000000063   -0.000001237
     19        6           0.000012156    0.000002681   -0.000006917
     20        1           0.000001090    0.000000547   -0.000000517
     21       16           0.000046378    0.000016110   -0.000002077
     22        7          -0.000026179   -0.000008395    0.000010275
     23        6           0.000004027    0.000005363    0.000005709
     24        8           0.000023263    0.000012988    0.000000081
     25        1          -0.000000136   -0.000002054   -0.000002461
     26        1          -0.000004051    0.000003149    0.000000132
 -------------------------------------------------------------------
 Cartesian Forces:  Max     0.000169411 RMS     0.000033993

 GradGradGradGradGradGradGradGradGradGradGradGradGradGradGradGradGradGrad
 Berny optimization.
 FormGI is forming the generalized inverse of G from B-inverse, IUseBI=4.
 Internal  Forces:  Max     0.000128813 RMS     0.000017958
 Search for a saddle point.
 Step number   6 out of a maximum of  142
 All quantities printed in internal units (Hartrees-Bohrs-Radians)
 Swapping is turned off.
 Update second derivatives using D2CorX and points    2    3    4    5    6
 ITU=  0  0  0  0  0  0
     Eigenvalues ---   -0.03524   0.00055   0.00137   0.00174   0.00228
     Eigenvalues ---    0.00534   0.00884   0.01341   0.01471   0.01519
     Eigenvalues ---    0.01609   0.01708   0.01847   0.01988   0.02552
     Eigenvalues ---    0.02756   0.03198   0.03922   0.03939   0.05146
     Eigenvalues ---    0.05216   0.05549   0.05751   0.05889   0.05910
     Eigenvalues ---    0.06048   0.06838   0.09198   0.11185   0.11826
     Eigenvalues ---    0.11983   0.12028   0.12271   0.12526   0.14436
     Eigenvalues ---    0.14651   0.14713   0.15138   0.15344   0.16906
     Eigenvalues ---    0.18515   0.19002   0.19112   0.19755   0.21070
     Eigenvalues ---    0.22052   0.22861   0.27345   0.31127   0.31649
     Eigenvalues ---    0.32621   0.33285   0.33505   0.33585   0.34195
     Eigenvalues ---    0.34602   0.34721   0.34916   0.35684   0.36006
     Eigenvalues ---    0.36535   0.36626   0.37363   0.39879   0.41024
     Eigenvalues ---    0.41183   0.45146   0.46319   0.48306   0.51938
     Eigenvalues ---    0.53182   0.57938
 Eigenvectors required to have negative eigenvalues:
                          R3        D14       D1        D2        D13
   1                   -0.90512  -0.15576   0.15506   0.14194  -0.14124
                          D15       D6        R4        R2        D5
   1                    0.10008  -0.09965   0.09142   0.08929  -0.08653
 RFO step:  Lambda0=5.672418297D-07 Lambda=-2.13151871D-06.
 Linear search not attempted -- option 19 set.
 Iteration  1 RMS(Cart)=  0.01161080 RMS(Int)=  0.00010941
 Iteration  2 RMS(Cart)=  0.00012897 RMS(Int)=  0.00000025
 Iteration  3 RMS(Cart)=  0.00000002 RMS(Int)=  0.00000025
 Variable       Old X    -DE/DX   Delta X   Delta X   Delta X     New X
                                 (Linear)    (Quad)   (Total)
    R1        2.04943  -0.00002   0.00000   0.00003   0.00003   2.04947
    R2        2.67513  -0.00009   0.00000   0.00022   0.00022   2.67536
    R3        4.26236   0.00013   0.00000  -0.00235  -0.00235   4.26001
    R4        2.67459  -0.00008   0.00000  -0.00004  -0.00004   2.67455
    R5        2.62370   0.00001   0.00000  -0.00004  -0.00004   2.62366
    R6        2.85305   0.00000   0.00000  -0.00003  -0.00003   2.85303
    R7        2.66531  -0.00002   0.00000  -0.00004  -0.00004   2.66527
    R8        2.05152  -0.00000   0.00000   0.00002   0.00002   2.05154
    R9        2.61588   0.00001   0.00000  -0.00005  -0.00005   2.61583
   R10        3.34330   0.00003   0.00000  -0.00001  -0.00001   3.34329
   R11        2.41831   0.00001   0.00000   0.00027   0.00027   2.41858
   R12        2.05202  -0.00000   0.00000  -0.00000  -0.00000   2.05202
   R13        2.84492  -0.00000   0.00000   0.00002   0.00002   2.84494
   R14        2.66856  -0.00002   0.00000   0.00007   0.00007   2.66863
   R15        2.04859   0.00000   0.00000   0.00001   0.00001   2.04860
   R16        2.57518   0.00003   0.00000  -0.00011  -0.00011   2.57507
   R17        2.62535  -0.00000   0.00000  -0.00005  -0.00005   2.62530
   R18        2.07578  -0.00000   0.00000  -0.00000  -0.00000   2.07577
   R19        2.07637  -0.00000   0.00000  -0.00000  -0.00000   2.07636
   R20        2.06392  -0.00000   0.00000   0.00000   0.00000   2.06392
   R21        2.06973  -0.00000   0.00000   0.00001   0.00001   2.06974
   R22        2.06945  -0.00000   0.00000  -0.00000  -0.00000   2.06945
   R23        2.06485  -0.00000   0.00000   0.00001   0.00001   2.06486
   R24        2.04334   0.00000   0.00000   0.00000   0.00000   2.04334
   R25        3.30614   0.00000   0.00000  -0.00010  -0.00010   3.30604
   R26        2.58174  -0.00003   0.00000  -0.00003  -0.00003   2.58171
   R27        1.82407   0.00000   0.00000   0.00000   0.00000   1.82407
    A1        2.08424  -0.00001   0.00000   0.00005   0.00005   2.08429
    A2        1.58274   0.00002   0.00000   0.00045   0.00045   1.58320
    A3        2.08251  -0.00001   0.00000  -0.00042  -0.00042   2.08209
    A4        1.72615  -0.00001   0.00000   0.00038   0.00038   1.72653
    A5        2.07135   0.00003   0.00000  -0.00004  -0.00004   2.07131
    A6        1.68393  -0.00002   0.00000   0.00044   0.00044   1.68437
    A7        2.12468   0.00001   0.00000  -0.00002  -0.00002   2.12466
    A8        2.06207  -0.00001   0.00000   0.00003   0.00003   2.06210
    A9        2.09644   0.00001   0.00000  -0.00002  -0.00002   2.09642
   A10        2.08277  -0.00000   0.00000  -0.00001  -0.00001   2.08275
   A11        2.11483   0.00000   0.00000  -0.00004  -0.00004   2.11479
   A12        2.08305  -0.00000   0.00000   0.00007   0.00007   2.08312
   A13        2.14419  -0.00002   0.00000   0.00140   0.00139   2.14558
   A14        2.07076  -0.00000   0.00000  -0.00013  -0.00013   2.07063
   A15        2.00242   0.00002   0.00000  -0.00040  -0.00040   2.00202
   A16        2.11190   0.00000   0.00000  -0.00001  -0.00001   2.11189
   A17        2.08483  -0.00000   0.00000  -0.00006  -0.00006   2.08476
   A18        2.08446  -0.00000   0.00000   0.00006   0.00006   2.08453
   A19        2.13864   0.00001   0.00000   0.00002   0.00002   2.13867
   A20        2.06156  -0.00001   0.00000  -0.00001  -0.00001   2.06155
   A21        2.08297   0.00001   0.00000  -0.00002  -0.00002   2.08296
   A22        2.18111  -0.00000   0.00000  -0.00007  -0.00007   2.18104
   A23        2.08107  -0.00000   0.00000   0.00002   0.00002   2.08109
   A24        2.02100   0.00001   0.00000   0.00005   0.00005   2.02105
   A25        1.95683  -0.00000   0.00000   0.00003   0.00003   1.95686
   A26        1.95082   0.00000   0.00000  -0.00009  -0.00009   1.95073
   A27        1.93579  -0.00000   0.00000   0.00001   0.00001   1.93579
   A28        1.87988   0.00000   0.00000   0.00004   0.00004   1.87992
   A29        1.87036   0.00000   0.00000   0.00001   0.00001   1.87037
   A30        1.86567  -0.00000   0.00000   0.00001   0.00001   1.86567
   A31        1.92943  -0.00000   0.00000   0.00003   0.00003   1.92946
   A32        1.94273   0.00000   0.00000  -0.00001  -0.00001   1.94272
   A33        1.93764   0.00000   0.00000   0.00002   0.00002   1.93766
   A34        1.86188   0.00000   0.00000  -0.00003  -0.00003   1.86185
   A35        1.89188   0.00000   0.00000   0.00003   0.00003   1.89191
   A36        1.89792   0.00000   0.00000  -0.00004  -0.00004   1.89789
   A37        2.24036  -0.00000   0.00000   0.00004   0.00004   2.24040
   A38        1.91042   0.00001   0.00000  -0.00012  -0.00012   1.91029
   A39        2.13235  -0.00001   0.00000   0.00008   0.00008   2.13244
   A40        1.54305  -0.00002   0.00000   0.00027   0.00027   1.54332
   A41        1.94742  -0.00002   0.00000   0.00020   0.00020   1.94762
   A42        2.13301  -0.00000   0.00000  -0.00000  -0.00000   2.13301
   A43        2.12801  -0.00000   0.00000   0.00003   0.00003   2.12804
   A44        2.02194   0.00000   0.00000  -0.00003  -0.00003   2.02191
   A45        1.91815   0.00000   0.00000  -0.00001  -0.00001   1.91815
    D1        0.23588   0.00000   0.00000   0.00095   0.00095   0.23683
    D2       -2.98265  -0.00000   0.00000   0.00114   0.00115  -2.98151
    D3       -1.43729  -0.00001   0.00000   0.00019   0.00019  -1.43710
    D4        1.62736  -0.00001   0.00000   0.00038   0.00038   1.62774
    D5        3.05746   0.00001   0.00000  -0.00054  -0.00054   3.05692
    D6       -0.16107   0.00001   0.00000  -0.00035  -0.00035  -0.16142
    D7        0.77027  -0.00002   0.00000  -0.02564  -0.02564   0.74462
    D8       -2.77355  -0.00001   0.00000  -0.02321  -0.02321  -2.79675
    D9        2.86360  -0.00003   0.00000  -0.02547  -0.02547   2.83813
   D10       -0.68022  -0.00002   0.00000  -0.02303  -0.02303  -0.70325
   D11       -1.31746  -0.00001   0.00000  -0.02532  -0.02532  -1.34277
   D12        1.42191   0.00000   0.00000  -0.02288  -0.02288   1.39903
   D13        2.97958   0.00000   0.00000  -0.00092  -0.00092   2.97866
   D14       -0.23025   0.00000   0.00000  -0.00108  -0.00108  -0.23133
   D15        0.15767  -0.00001   0.00000   0.00049   0.00049   0.15816
   D16       -3.05216  -0.00001   0.00000   0.00032   0.00032  -3.05183
   D17       -1.65514   0.00001   0.00000  -0.00020  -0.00020  -1.65534
   D18        1.41822   0.00001   0.00000  -0.00037  -0.00037   1.41785
   D19        3.07953   0.00000   0.00000  -0.00028  -0.00028   3.07924
   D20        0.00615   0.00000   0.00000  -0.00011  -0.00011   0.00604
   D21       -0.06015   0.00000   0.00000  -0.00025  -0.00025  -0.06041
   D22       -3.13353   0.00001   0.00000  -0.00008  -0.00008  -3.13361
   D23        2.13789   0.00000   0.00000   0.00070   0.00070   2.13859
   D24       -2.03242   0.00000   0.00000   0.00071   0.00071  -2.03172
   D25        0.04776   0.00000   0.00000   0.00066   0.00066   0.04841
   D26       -1.00565  -0.00000   0.00000   0.00066   0.00066  -1.00499
   D27        1.10722   0.00000   0.00000   0.00067   0.00067   1.10789
   D28       -3.09579  -0.00000   0.00000   0.00062   0.00062  -3.09516
   D29       -0.03832   0.00000   0.00000  -0.00014  -0.00014  -0.03846
   D30        3.12687  -0.00000   0.00000   0.00002   0.00002   3.12689
   D31        3.10516   0.00000   0.00000  -0.00011  -0.00011   3.10505
   D32       -0.01284   0.00000   0.00000   0.00005   0.00005  -0.01279
   D33       -3.06996  -0.00000   0.00000   0.00001   0.00001  -3.06995
   D34        0.06631  -0.00000   0.00000  -0.00002  -0.00002   0.06629
   D35       -0.00532  -0.00000   0.00000   0.00019   0.00019  -0.00512
   D36        3.13095  -0.00001   0.00000   0.00017   0.00017   3.13112
   D37        2.77732   0.00000   0.00000   0.00242   0.00242   2.77973
   D38        0.02362  -0.00000   0.00000   0.00003   0.00003   0.02365
   D39       -2.80293   0.00000   0.00000  -0.00262  -0.00262  -2.80555
   D40       -0.03181   0.00000   0.00000   0.00002   0.00002  -0.03179
   D41        2.04765  -0.00000   0.00000  -0.00016  -0.00016   2.04750
   D42       -2.16954  -0.00000   0.00000  -0.00019  -0.00019  -2.16973
   D43       -0.05262  -0.00000   0.00000  -0.00023  -0.00023  -0.05285
   D44       -1.08855   0.00000   0.00000  -0.00013  -0.00013  -1.08868
   D45        0.97744   0.00000   0.00000  -0.00016  -0.00016   0.97728
   D46        3.09436   0.00000   0.00000  -0.00020  -0.00020   3.09415
   D47        0.03533  -0.00000   0.00000   0.00027   0.00027   0.03560
   D48       -3.12852   0.00000   0.00000   0.00012   0.00012  -3.12839
   D49       -3.11141  -0.00001   0.00000   0.00025   0.00025  -3.11117
   D50        0.00793  -0.00000   0.00000   0.00010   0.00010   0.00802
   D51        0.00559  -0.00000   0.00000  -0.00006  -0.00006   0.00553
   D52        3.13645  -0.00000   0.00000   0.00000   0.00000   3.13645
   D53       -3.13854   0.00000   0.00000   0.00005   0.00005  -3.13850
   D54       -0.00769  -0.00000   0.00000   0.00011   0.00011  -0.00758
   D55       -3.11814  -0.00000   0.00000   0.00002   0.00002  -3.11812
   D56        0.02584  -0.00000   0.00000  -0.00008  -0.00008   0.02576
   D57       -0.00785   0.00000   0.00000  -0.00008  -0.00008  -0.00793
   D58        3.12379   0.00000   0.00000  -0.00002  -0.00002   3.12377
   D59       -0.06607   0.00000   0.00000  -0.00086  -0.00086  -0.06692
   D60        3.09771  -0.00000   0.00000  -0.00071  -0.00071   3.09700
         Item               Value     Threshold  Converged?
 Maximum Force            0.000129     0.000450     YES
 RMS     Force            0.000018     0.000300     YES
 Maximum Displacement     0.055727     0.001800     NO 
 RMS     Displacement     0.011609     0.001200     NO 
 Predicted change in Energy=-7.820404D-07
 GradGradGradGradGradGradGradGradGradGradGradGradGradGradGradGradGradGrad

                          Input orientation:                          
 ---------------------------------------------------------------------
 Center     Atomic      Atomic             Coordinates (Angstroms)
 Number     Number       Type             X           Y           Z
 ---------------------------------------------------------------------
      1          6           0        4.743450   -2.163337    2.164784
      2          1           0        5.747086   -1.770349    2.285127
      3          6           0        3.279064   -3.801396    1.103062
      4          6           0        3.808714   -2.017918    3.218082
      5          1           0        4.026637   -1.333061    4.031755
      6          6           0        4.159461   -0.370636    0.929047
      7          6           0        4.495216   -3.134579    1.165700
      8          6           0        2.584769   -2.663607    3.183997
      9          6           0        2.689158    0.731521   -0.295715
     10          1           0        1.678698    1.061020   -0.509284
     11          6           0        2.967051   -4.781964   -0.001702
     12          1           0        2.712861   -5.777000    0.388024
     13          1           0        2.127239   -4.441859   -0.623255
     14          1           0        3.824481   -4.905687   -0.666808
     15          6           0        1.532470   -2.460576    4.241311
     16          1           0        0.629533   -2.019779    3.805432
     17          1           0        1.231663   -3.412526    4.691381
     18          1           0        1.893311   -1.797319    5.031138
     19          6           0        3.789727    1.062966   -1.027665
     20          1           0        3.846985    1.688616   -1.907704
     21         16           0        5.206034    0.319114   -0.319540
     22          7           0        2.916631   -0.094635    0.797781
     23          6           0        2.323805   -3.538890    2.106953
     24          8           0        1.096371   -4.138757    2.110907
     25          1           0        0.994471   -4.683795    1.320801
     26          1           0        5.242999   -3.315331    0.399349
 ---------------------------------------------------------------------
                    Distance matrix (angstroms):
                    1          2          3          4          5
     1  C    0.000000
     2  H    1.084531   0.000000
     3  C    2.440270   3.407868   0.000000
     4  C    1.415738   2.165406   2.816848   0.000000
     5  H    2.165355   2.490357   3.902408   1.085627   0.000000
     6  C    2.254299   2.513703   3.546194   2.841873   3.251262
     7  C    1.415309   2.163658   1.388379   2.435260   3.417501
     8  C    2.439051   3.406776   2.471214   1.384239   2.137295
     9  C    4.319071   4.719219   4.780367   4.599956   4.977786
    10  H    5.190358   5.690094   5.366929   5.282999   5.644952
    11  C    3.834901   4.693400   1.509758   4.326125   5.411695
    12  H    4.509848   5.372036   2.175977   4.831234   5.895030
    13  H    4.450773   5.357139   2.171880   4.843420   5.911130
    14  H    4.047580   4.716002   2.156242   4.840643   5.906016
    15  C    3.835454   4.697452   3.833666   2.534606   2.745190
    16  H    4.431326   5.344426   4.182939   3.232982   3.473200
    17  H    4.502978   5.373625   4.149590   3.279746   3.545583
    18  H    4.058725   4.732113   4.622382   2.646622   2.401121
    19  C    4.637924   4.778443   5.335054   5.245815   5.603107
    20  H    5.676825   5.758008   6.287088   6.325625   6.666332
    21  S    3.542373   3.382733   4.766091   4.464190   4.801503
    22  N    3.079852   3.609943   3.736929   3.217559   3.636537
    23  C    2.783913   3.857245   1.410399   2.398524   3.386766
    24  O    4.148056   5.221959   2.427696   3.616711   4.488658
    25  H    4.595635   5.657335   2.458740   4.315847   5.269793
    26  H    2.166426   2.489424   2.142082   3.418437   4.313155
                    6          7          8          9         10
     6  C    0.000000
     7  C    2.794301   0.000000
     8  C    3.580805   2.818714   0.000000
     9  C    2.208299   4.510467   4.862735   0.000000
    10  H    3.205093   5.323664   5.322982   1.084071   0.000000
    11  C    4.663469   2.532192   3.844770   5.528308   6.004828
    12  H    5.622644   3.280847   4.186537   6.544380   6.973749
    13  H    4.807745   3.242939   4.226900   5.214105   5.522305
    14  H    4.819300   2.635298   4.625203   5.762359   6.342775
    15  C    4.715932   4.323370   1.505479   5.666746   5.915333
    16  H    4.842897   4.811910   2.150266   5.350805   5.404520
    17  H    5.655108   4.812324   2.159626   6.645942   6.874545
    18  H    4.898776   4.847659   2.154182   5.950107   6.237983
    19  C    2.453699   4.788314   5.751292   1.362666   2.173745
    20  H    3.519278   5.755799   6.816190   2.203429   2.655358
    21  S    1.769192   3.826120   5.295510   2.550551   3.609505
    22  N    1.279857   3.445078   3.521899   1.389249   2.139261
    23  C    3.846417   2.400927   1.412178   4.913523   5.331044
    24  O    4.997804   3.667961   2.354340   5.661131   5.851682
    25  H    5.364137   3.831363   3.175170   5.900062   6.067971
    26  H    3.182116   1.085884   3.904509   4.835517   5.716844
                   11         12         13         14         15
    11  C    0.000000
    12  H    1.098452   0.000000
    13  H    1.098764   1.774329   0.000000
    14  H    1.092181   1.762826   1.760018   0.000000
    15  C    5.044802   5.219177   5.286136   5.943190   0.000000
    16  H    5.252421   5.489594   5.265251   6.207825   1.095257
    17  H    5.187674   5.128700   5.486979   6.136972   1.095106
    18  H    5.948992   6.169930   6.246638   6.771851   1.092677
    19  C    5.991044   7.067458   5.764591   5.979653   6.728496
    20  H    6.802612   7.892530   6.495387   6.710079   7.770660
    21  S    5.579880   6.624136   5.677859   5.415518   6.482523
    22  N    4.755289   5.700764   4.641211   5.110327   4.401304
    23  C    2.530894   2.848722   2.882365   3.437137   2.518821
    24  O    2.894180   2.874927   2.937721   3.968182   2.746834
    25  H    2.376915   2.240098   2.262975   3.465369   3.709652
    26  H    2.737114   3.530091   3.467382   2.382880   5.409187
                   16         17         18         19         20
    16  H    0.000000
    17  H    1.757046   0.000000
    18  H    1.774536   1.778232   0.000000
    19  C    6.545912   7.699429   6.963240   0.000000
    20  H    7.532869   8.741252   8.007254   1.081289   0.000000
    21  S    6.590157   7.404734   6.639516   1.749480   2.498963
    22  N    4.240632   5.385874   4.676283   2.331221   3.371230
    23  C    2.839558   2.808560   3.430635   5.757763   6.764936
    24  O    2.753075   2.684131   3.826904   6.645504   7.594299
    25  H    3.661086   3.610151   4.786048   6.808378   7.692054
    26  H    5.879109   5.875526   5.914241   4.828856   5.684261
                   21         22         23         24         25
    21  S    0.000000
    22  N    2.580884   0.000000
    23  C    5.392523   3.732060   0.000000
    24  O    6.532152   4.625210   1.366181   0.000000
    25  H    6.742187   5.002863   1.922491   0.965255   0.000000
    26  H    3.705045   3.992946   3.389334   4.560919   4.557605
                   26
    26  H    0.000000
 Symmetry turned off by external request.
 Stoichiometry    C11H12NOS(2)
 Framework group  C1[X(C11H12NOS)]
 Deg. of freedom    72
 Full point group                 C1      NOp   1
 Rotational constants (GHZ):           1.0114483           0.3886825           0.3610545
 Standard basis: 6-31G(d,p) (6D, 7F)
   274 basis functions,   500 primitive gaussians,   274 cartesian basis functions
    55 alpha electrons       54 beta electrons
       nuclear repulsion energy       947.3046357767 Hartrees.
 NAtoms=   26 NActive=   26 NUniq=   26 SFac= 1.00D+00 NAtFMM=   60 NAOKFM=F Big=F
 Integral buffers will be    131072 words long.
 Raffenetti 2 integral format.
 Two-electron integral symmetry is turned off.
 Nuclear repulsion after empirical dispersion term =      947.2816201863 Hartrees.
 One-electron integrals computed using PRISM.
 NBasis=   274 RedAO= T EigKep=  4.38D-04  NBF=   274
 NBsUse=   274 1.00D-06 EigRej= -1.00D+00 NBFU=   274
 Initial guess from the checkpoint file:  "/scratch/jcuzick/job_48780924/Gau-1202240.chk"
 B after Tr=     0.000755   -0.000285   -0.003502
         Rot=    0.999999   -0.000432    0.000825   -0.000556 Ang=  -0.12 deg.
 Initial guess <Sx>= 0.0000 <Sy>= 0.0000 <Sz>= 0.5000 <S**2>= 0.7728 S= 0.5113
 ExpMin= 1.17D-01 ExpMax= 2.19D+04 ExpMxC= 3.30D+03 IAcc=3 IRadAn=         5 AccDes= 0.00D+00
 Harris functional with IExCor=  402 and IRadAn=       5 diagonalized for initial guess.
 HarFok:  IExCor=  402 AccDes= 0.00D+00 IRadAn=         5 IDoV= 1 UseB2=F ITyADJ=14
 ICtDFT=  3500011 ScaDFX=  1.000000  1.000000  1.000000  1.000000
 FoFCou: FMM=F IPFlag=           0 FMFlag=      100000 FMFlg1=           0
         NFxFlg=           0 DoJE=T BraDBF=F KetDBF=T FulRan=T
         wScrn=  0.000000 ICntrl=       500 IOpCl=  0 I1Cent=   200000004 NGrid=           0
         NMat0=    1 NMatS0=      1 NMatT0=    0 NMatD0=    1 NMtDS0=    0 NMtDT0=    0
 Symmetry not used in FoFCou.
 Requested convergence on RMS density matrix=1.00D-08 within 128 cycles.
 Requested convergence on MAX density matrix=1.00D-06.
 Requested convergence on             energy=1.00D-06.
 No special actions if energy rises.
 Integral accuracy reduced to 1.0D-05 until final iterations.
 Initial convergence to 1.0D-05 achieved.  Increase integral accuracy.
 SCF Done:  E(UB3LYP) =  -954.502517450     A.U. after   14 cycles
            NFock= 14  Conv=0.49D-08     -V/T= 2.0069
 <Sx>= 0.0000 <Sy>= 0.0000 <Sz>= 0.5000 <S**2>= 0.7728 S= 0.5113
 <L.S>= 0.000000000000E+00
 Annihilation of the first spin contaminant:
 S**2 before annihilation     0.7728,   after     0.7504
 Calling FoFJK, ICntrl=      2127 FMM=F ISym2X=0 I1Cent= 0 IOpClX= 1 NMat=1 NMatS=1 NMatT=0.
 -------------------------------------------------------------------
 Center     Atomic                   Forces (Hartrees/Bohr)
 Number     Number              X              Y              Z
 -------------------------------------------------------------------
      1        6          -0.000019756   -0.000108724    0.000062562
      2        1          -0.000015571    0.000012752    0.000008095
      3        6           0.000014619   -0.000004661   -0.000011110
      4        6           0.000044229    0.000005615   -0.000053372
      5        1          -0.000001449    0.000002978   -0.000002839
      6        6          -0.000167987    0.000105417   -0.000177302
      7        6           0.000005411    0.000018297    0.000033679
      8        6          -0.000014889   -0.000011333   -0.000009593
      9        6          -0.000070344   -0.000048260    0.000087283
     10        1          -0.000002597   -0.000004391    0.000006387
     11        6          -0.000002443    0.000000446   -0.000001414
     12        1          -0.000000280    0.000000188    0.000000326
     13        1           0.000000902   -0.000000467   -0.000001530
     14        1          -0.000000129   -0.000000213    0.000000853
     15        6           0.000000271   -0.000001456   -0.000000054
     16        1           0.000000878   -0.000000347   -0.000002284
     17        1           0.000000337    0.000000310    0.000000907
     18        1          -0.000000689    0.000000359   -0.000001177
     19        6           0.000076296   -0.000000069   -0.000030748
     20        1           0.000002978   -0.000003211   -0.000000385
     21       16           0.000110080    0.000014801   -0.000006845
     22        7           0.000033284   -0.000011268    0.000081874
     23        6          -0.000016455    0.000015657    0.000019938
     24        8           0.000027739    0.000012909    0.000001152
     25        1          -0.000000294   -0.000000880   -0.000003072
     26        1          -0.000004143    0.000005552   -0.000001332
 -------------------------------------------------------------------
 Cartesian Forces:  Max     0.000177302 RMS     0.000042142

 GradGradGradGradGradGradGradGradGradGradGradGradGradGradGradGradGradGrad
 Berny optimization.
 FormGI is forming the generalized inverse of G from B-inverse, IUseBI=4.
 Internal  Forces:  Max     0.000118846 RMS     0.000023871
 Search for a saddle point.
 Step number   7 out of a maximum of  142
 All quantities printed in internal units (Hartrees-Bohrs-Radians)
 Swapping is turned off.
 Update second derivatives using D2CorX and points    2    3    4    5    6
                                                      7
 ITU=  0  0  0  0  0  0  0
     Eigenvalues ---   -0.03471   0.00074   0.00137   0.00174   0.00301
     Eigenvalues ---    0.00535   0.00884   0.01341   0.01471   0.01519
     Eigenvalues ---    0.01609   0.01708   0.01847   0.01988   0.02552
     Eigenvalues ---    0.02756   0.03197   0.03921   0.03938   0.05147
     Eigenvalues ---    0.05212   0.05550   0.05751   0.05889   0.05910
     Eigenvalues ---    0.06048   0.06840   0.09198   0.11185   0.11826
     Eigenvalues ---    0.11984   0.12029   0.12271   0.12526   0.14436
     Eigenvalues ---    0.14651   0.14713   0.15139   0.15344   0.16906
     Eigenvalues ---    0.18515   0.19004   0.19112   0.19755   0.21070
     Eigenvalues ---    0.22057   0.22861   0.27345   0.31127   0.31649
     Eigenvalues ---    0.32621   0.33286   0.33505   0.33586   0.34195
     Eigenvalues ---    0.34602   0.34721   0.34916   0.35684   0.36006
     Eigenvalues ---    0.36535   0.36627   0.37363   0.39882   0.41034
     Eigenvalues ---    0.41190   0.45147   0.46319   0.48322   0.51939
     Eigenvalues ---    0.53182   0.57943
 Eigenvectors required to have negative eigenvalues:
                          R3        D14       D1        D2        D13
   1                   -0.90315  -0.15599   0.15540   0.14241  -0.14168
                          D15       D6        R4        R2        D5
   1                    0.09968  -0.09915   0.09127   0.08878  -0.08616
 RFO step:  Lambda0=1.931616154D-07 Lambda=-8.50798111D-07.
 Linear search not attempted -- option 19 set.
 Iteration  1 RMS(Cart)=  0.00468058 RMS(Int)=  0.00001412
 Iteration  2 RMS(Cart)=  0.00002006 RMS(Int)=  0.00000038
 Iteration  3 RMS(Cart)=  0.00000000 RMS(Int)=  0.00000038
 Variable       Old X    -DE/DX   Delta X   Delta X   Delta X     New X
                                 (Linear)    (Quad)   (Total)
    R1        2.04947  -0.00001   0.00000  -0.00001  -0.00001   2.04946
    R2        2.67536  -0.00006   0.00000  -0.00002  -0.00002   2.67534
    R3        4.26001   0.00007   0.00000  -0.00117  -0.00117   4.25884
    R4        2.67455  -0.00004   0.00000   0.00014   0.00014   2.67469
    R5        2.62366  -0.00002   0.00000  -0.00005  -0.00005   2.62360
    R6        2.85303   0.00000   0.00000   0.00001   0.00001   2.85304
    R7        2.66527   0.00000   0.00000   0.00008   0.00008   2.66535
    R8        2.05154  -0.00000   0.00000  -0.00001  -0.00001   2.05153
    R9        2.61583   0.00000   0.00000  -0.00002  -0.00002   2.61581
   R10        3.34329   0.00004   0.00000   0.00006   0.00006   3.34335
   R11        2.41858  -0.00008   0.00000  -0.00017  -0.00016   2.41841
   R12        2.05202  -0.00000   0.00000  -0.00000  -0.00000   2.05202
   R13        2.84494  -0.00000   0.00000  -0.00001  -0.00001   2.84493
   R14        2.66863  -0.00002   0.00000  -0.00002  -0.00002   2.66861
   R15        2.04860  -0.00000   0.00000  -0.00000  -0.00000   2.04860
   R16        2.57507   0.00011   0.00000   0.00020   0.00020   2.57527
   R17        2.62530  -0.00006   0.00000  -0.00001  -0.00001   2.62529
   R18        2.07577   0.00000   0.00000   0.00000   0.00000   2.07577
   R19        2.07636   0.00000   0.00000   0.00000   0.00000   2.07636
   R20        2.06392  -0.00000   0.00000  -0.00000  -0.00000   2.06392
   R21        2.06974  -0.00000   0.00000  -0.00001  -0.00001   2.06973
   R22        2.06945  -0.00000   0.00000   0.00000   0.00000   2.06945
   R23        2.06486  -0.00000   0.00000  -0.00001  -0.00001   2.06485
   R24        2.04334  -0.00000   0.00000   0.00000   0.00000   2.04334
   R25        3.30604   0.00000   0.00000   0.00006   0.00006   3.30610
   R26        2.58171  -0.00003   0.00000  -0.00002  -0.00002   2.58169
   R27        1.82407   0.00000   0.00000   0.00000   0.00000   1.82407
    A1        2.08429  -0.00001   0.00000  -0.00018  -0.00018   2.08411
    A2        1.58320   0.00000   0.00000  -0.00008  -0.00008   1.58311
    A3        2.08209  -0.00000   0.00000   0.00007   0.00007   2.08216
    A4        1.72653  -0.00003   0.00000  -0.00007  -0.00007   1.72647
    A5        2.07131   0.00001   0.00000  -0.00005  -0.00005   2.07126
    A6        1.68437   0.00001   0.00000   0.00065   0.00065   1.68502
    A7        2.12466   0.00001   0.00000   0.00002   0.00002   2.12469
    A8        2.06210  -0.00001   0.00000  -0.00002  -0.00002   2.06208
    A9        2.09642   0.00001   0.00000  -0.00000  -0.00000   2.09642
   A10        2.08275  -0.00000   0.00000  -0.00003  -0.00003   2.08272
   A11        2.11479   0.00000   0.00000   0.00003   0.00003   2.11482
   A12        2.08312  -0.00000   0.00000  -0.00001  -0.00001   2.08311
   A13        2.14558  -0.00004   0.00000   0.00030   0.00030   2.14588
   A14        2.07063  -0.00007   0.00000   0.00051   0.00050   2.07113
   A15        2.00202   0.00012   0.00000   0.00050   0.00050   2.00252
   A16        2.11189   0.00000   0.00000   0.00001   0.00001   2.11190
   A17        2.08476  -0.00000   0.00000  -0.00001  -0.00001   2.08475
   A18        2.08453  -0.00000   0.00000  -0.00000  -0.00000   2.08452
   A19        2.13867   0.00001   0.00000  -0.00000  -0.00000   2.13866
   A20        2.06155  -0.00001   0.00000   0.00000   0.00000   2.06156
   A21        2.08296   0.00000   0.00000  -0.00000  -0.00000   2.08296
   A22        2.18104   0.00001   0.00000   0.00001   0.00001   2.18105
   A23        2.08109  -0.00001   0.00000  -0.00002  -0.00002   2.08107
   A24        2.02105  -0.00001   0.00000   0.00002   0.00002   2.02107
   A25        1.95686  -0.00000   0.00000  -0.00002  -0.00002   1.95684
   A26        1.95073   0.00000   0.00000   0.00005   0.00005   1.95078
   A27        1.93579  -0.00000   0.00000  -0.00001  -0.00001   1.93578
   A28        1.87992  -0.00000   0.00000  -0.00001  -0.00001   1.87991
   A29        1.87037   0.00000   0.00000  -0.00001  -0.00001   1.87036
   A30        1.86567  -0.00000   0.00000  -0.00000  -0.00000   1.86567
   A31        1.92946  -0.00000   0.00000  -0.00003  -0.00003   1.92942
   A32        1.94272   0.00000   0.00000   0.00002   0.00002   1.94273
   A33        1.93766   0.00000   0.00000  -0.00001  -0.00001   1.93765
   A34        1.86185   0.00000   0.00000   0.00002   0.00002   1.86186
   A35        1.89191   0.00000   0.00000  -0.00001  -0.00001   1.89190
   A36        1.89789  -0.00000   0.00000   0.00002   0.00002   1.89790
   A37        2.24040  -0.00001   0.00000  -0.00007  -0.00007   2.24033
   A38        1.91029   0.00002   0.00000   0.00014   0.00014   1.91043
   A39        2.13244  -0.00001   0.00000  -0.00007  -0.00007   2.13237
   A40        1.54332  -0.00008   0.00000  -0.00032  -0.00032   1.54300
   A41        1.94762  -0.00005   0.00000  -0.00032  -0.00032   1.94730
   A42        2.13301   0.00000   0.00000   0.00001   0.00001   2.13302
   A43        2.12804  -0.00000   0.00000  -0.00003  -0.00003   2.12801
   A44        2.02191   0.00000   0.00000   0.00002   0.00002   2.02193
   A45        1.91815  -0.00000   0.00000   0.00001   0.00001   1.91816
    D1        0.23683  -0.00001   0.00000   0.00061   0.00061   0.23744
    D2       -2.98151  -0.00001   0.00000   0.00035   0.00035  -2.98116
    D3       -1.43710   0.00001   0.00000   0.00078   0.00078  -1.43632
    D4        1.62774   0.00000   0.00000   0.00052   0.00052   1.62827
    D5        3.05692   0.00000   0.00000   0.00008   0.00008   3.05700
    D6       -0.16142   0.00000   0.00000  -0.00018  -0.00018  -0.16160
    D7        0.74462  -0.00001   0.00000   0.00628   0.00628   0.75090
    D8       -2.79675   0.00003   0.00000   0.01025   0.01025  -2.78651
    D9        2.83813  -0.00002   0.00000   0.00607   0.00607   2.84419
   D10       -0.70325   0.00002   0.00000   0.01004   0.01004  -0.69322
   D11       -1.34277  -0.00001   0.00000   0.00616   0.00616  -1.33661
   D12        1.39903   0.00003   0.00000   0.01013   0.01013   1.40916
   D13        2.97866   0.00001   0.00000  -0.00046  -0.00046   2.97820
   D14       -0.23133   0.00000   0.00000  -0.00054  -0.00054  -0.23188
   D15        0.15816  -0.00000   0.00000   0.00012   0.00012   0.15828
   D16       -3.05183  -0.00001   0.00000   0.00003   0.00003  -3.05180
   D17       -1.65534   0.00002   0.00000  -0.00017  -0.00017  -1.65551
   D18        1.41785   0.00001   0.00000  -0.00026  -0.00026   1.41759
   D19        3.07924   0.00000   0.00000   0.00002   0.00002   3.07926
   D20        0.00604   0.00001   0.00000   0.00011   0.00011   0.00615
   D21       -0.06041   0.00000   0.00000  -0.00003  -0.00003  -0.06044
   D22       -3.13361   0.00001   0.00000   0.00005   0.00005  -3.13355
   D23        2.13859   0.00000   0.00000  -0.00009  -0.00009   2.13850
   D24       -2.03172   0.00000   0.00000  -0.00009  -0.00009  -2.03181
   D25        0.04841   0.00000   0.00000  -0.00006  -0.00006   0.04835
   D26       -1.00499  -0.00000   0.00000  -0.00003  -0.00003  -1.00502
   D27        1.10789  -0.00000   0.00000  -0.00003  -0.00003   1.10786
   D28       -3.09516  -0.00000   0.00000  -0.00000  -0.00000  -3.09516
   D29       -0.03846  -0.00000   0.00000  -0.00000  -0.00000  -0.03846
   D30        3.12689  -0.00000   0.00000  -0.00001  -0.00001   3.12688
   D31        3.10505   0.00000   0.00000  -0.00006  -0.00006   3.10499
   D32       -0.01279   0.00000   0.00000  -0.00006  -0.00006  -0.01285
   D33       -3.06995   0.00000   0.00000   0.00013   0.00013  -3.06982
   D34        0.06629  -0.00000   0.00000   0.00015   0.00015   0.06644
   D35       -0.00512  -0.00000   0.00000  -0.00013  -0.00013  -0.00525
   D36        3.13112  -0.00000   0.00000  -0.00011  -0.00011   3.13101
   D37        2.77973  -0.00001   0.00000   0.00334   0.00334   2.78308
   D38        0.02365  -0.00001   0.00000  -0.00049  -0.00049   0.02316
   D39       -2.80555  -0.00000   0.00000  -0.00302  -0.00302  -2.80857
   D40       -0.03179   0.00001   0.00000   0.00058   0.00058  -0.03121
   D41        2.04750  -0.00000   0.00000   0.00029   0.00029   2.04779
   D42       -2.16973   0.00000   0.00000   0.00030   0.00030  -2.16943
   D43       -0.05285   0.00000   0.00000   0.00033   0.00033  -0.05253
   D44       -1.08868   0.00000   0.00000   0.00027   0.00027  -1.08841
   D45        0.97728   0.00000   0.00000   0.00028   0.00028   0.97756
   D46        3.09415   0.00000   0.00000   0.00031   0.00031   3.09446
   D47        0.03560  -0.00000   0.00000  -0.00005  -0.00005   0.03554
   D48       -3.12839  -0.00000   0.00000  -0.00005  -0.00005  -3.12844
   D49       -3.11117  -0.00000   0.00000  -0.00003  -0.00003  -3.11120
   D50        0.00802  -0.00000   0.00000  -0.00003  -0.00003   0.00799
   D51        0.00553   0.00000   0.00000  -0.00008  -0.00008   0.00545
   D52        3.13645  -0.00000   0.00000   0.00000   0.00000   3.13645
   D53       -3.13850  -0.00000   0.00000  -0.00006  -0.00006  -3.13856
   D54       -0.00758  -0.00000   0.00000   0.00002   0.00002  -0.00757
   D55       -3.11812  -0.00000   0.00000  -0.00039  -0.00039  -3.11851
   D56        0.02576  -0.00000   0.00000  -0.00040  -0.00040   0.02536
   D57       -0.00793   0.00001   0.00000   0.00024   0.00024  -0.00768
   D58        3.12377   0.00000   0.00000   0.00032   0.00032   3.12409
   D59       -0.06692  -0.00000   0.00000   0.00020   0.00020  -0.06673
   D60        3.09700  -0.00000   0.00000   0.00019   0.00019   3.09719
         Item               Value     Threshold  Converged?
 Maximum Force            0.000119     0.000450     YES
 RMS     Force            0.000024     0.000300     YES
 Maximum Displacement     0.023959     0.001800     NO 
 RMS     Displacement     0.004681     0.001200     NO 
 Predicted change in Energy=-3.288195D-07
 GradGradGradGradGradGradGradGradGradGradGradGradGradGradGradGradGradGrad

                          Input orientation:                          
 ---------------------------------------------------------------------
 Center     Atomic      Atomic             Coordinates (Angstroms)
 Number     Number       Type             X           Y           Z
 ---------------------------------------------------------------------
      1          6           0        4.743361   -2.163610    2.163839
      2          1           0        5.746904   -1.770547    2.284685
      3          6           0        3.279990   -3.803298    1.103122
      4          6           0        3.807966   -2.017238    3.216405
      5          1           0        4.025193   -1.331298    4.029346
      6          6           0        4.160632   -0.372117    0.926884
      7          6           0        4.495943   -3.136175    1.165732
      8          6           0        2.584153   -2.663154    3.182290
      9          6           0        2.689449    0.738118   -0.288925
     10          1           0        1.679623    1.073275   -0.496605
     11          6           0        2.968868   -4.785307   -0.000622
     12          1           0        2.714702   -5.779920    0.390199
     13          1           0        2.129338   -4.446219   -0.623112
     14          1           0        3.826729   -4.909649   -0.665055
     15          6           0        1.531144   -2.459032    4.238677
     16          1           0        0.628333   -2.019165    3.801605
     17          1           0        1.230399   -3.410455    4.689905
     18          1           0        1.891261   -1.794521    5.027775
     19          6           0        3.787607    1.063127   -1.027547
     20          1           0        3.843105    1.688143   -1.908150
     21         16           0        5.204015    0.311545   -0.327751
     22          7           0        2.918693   -0.088975    0.803485
     23          6           0        2.324032   -3.539766    2.106138
     24          8           0        1.096724   -4.139871    2.110016
     25          1           0        0.995498   -4.686006    1.320580
     26          1           0        5.244222   -3.317652    0.400040
 ---------------------------------------------------------------------
                    Distance matrix (angstroms):
                    1          2          3          4          5
     1  C    0.000000
     2  H    1.084528   0.000000
     3  C    2.440318   3.407907   0.000000
     4  C    1.415727   2.165280   2.816866   0.000000
     5  H    2.165323   2.490195   3.902422   1.085622   0.000000
     6  C    2.253681   2.513064   3.546772   2.841251   3.250176
     7  C    1.415385   2.163769   1.388350   2.435281   3.417524
     8  C    2.439050   3.406675   2.471246   1.384228   2.137274
     9  C    4.319100   4.718570   4.786543   4.596782   4.971334
    10  H    5.190556   5.689084   5.375990   5.278974   5.636303
    11  C    3.834973   4.693495   1.509765   4.326148   5.411714
    12  H    4.509873   5.372001   2.175970   4.831195   5.894999
    13  H    4.450901   5.357359   2.171920   4.843515   5.911207
    14  H    4.047664   4.716143   2.156244   4.840674   5.906047
    15  C    3.835435   4.697311   3.833695   2.534589   2.745157
    16  H    4.431320   5.344401   4.182849   3.233037   3.473282
    17  H    4.502947   5.373379   4.149718   3.279650   3.545434
    18  H    4.058673   4.731923   4.622408   2.646587   2.401062
    19  C    4.637914   4.779062   5.336621   5.244064   5.600169
    20  H    5.676931   5.759067   6.288146   6.323935   6.663636
    21  S    3.542120   3.384473   4.762478   4.464664   4.803421
    22  N    3.079625   3.608382   3.743864   3.214218   3.629586
    23  C    2.783934   3.857210   1.410442   2.398508   3.386740
    24  O    4.148067   5.221913   2.427708   3.616697   4.488634
    25  H    4.595654   5.657318   2.458732   4.315837   5.269775
    26  H    2.166486   2.489600   2.142052   3.418453   4.313177
                    6          7          8          9         10
     6  C    0.000000
     7  C    2.794548   0.000000
     8  C    3.580641   2.818723   0.000000
     9  C    2.207983   4.515484   4.860974   0.000000
    10  H    3.204822   5.330524   5.321028   1.084071   0.000000
    11  C    4.664420   2.532189   3.844798   5.537998   6.019230
    12  H    5.623440   3.280802   4.186532   6.553371   6.987424
    13  H    4.809049   3.242993   4.226969   5.225204   5.539229
    14  H    4.820265   2.635307   4.625235   5.773400   6.358758
    15  C    4.715654   4.323372   1.505472   5.662386   5.909495
    16  H    4.842925   4.811855   2.150233   5.346329   5.398426
    17  H    5.654917   4.812360   2.159633   6.642908   6.870628
    18  H    4.898018   4.847657   2.154167   5.942950   6.227987
    19  C    2.453340   4.790235   5.749453   1.362772   2.173845
    20  H    3.518936   5.757516   6.814053   2.203489   2.655405
    21  S    1.769223   3.823431   5.294610   2.550787   3.609720
    22  N    1.279769   3.450271   3.520942   1.389242   2.139241
    23  C    3.846783   2.400927   1.412167   4.916314   5.335699
    24  O    4.998330   3.667938   2.354338   5.664491   5.857571
    25  H    5.364951   3.831327   3.175172   5.906022   6.077787
    26  H    3.182438   1.085882   3.904517   4.842604   5.726306
                   11         12         13         14         15
    11  C    0.000000
    12  H    1.098452   0.000000
    13  H    1.098765   1.774320   0.000000
    14  H    1.092180   1.762821   1.760018   0.000000
    15  C    5.044825   5.219185   5.286184   5.943216   0.000000
    16  H    5.252292   5.489435   5.265143   6.207712   1.095254
    17  H    5.187826   5.128839   5.487172   6.137110   1.095108
    18  H    5.949018   6.169973   6.246656   6.771881   1.092674
    19  C    5.994088   7.070250   5.767697   5.983894   6.725351
    20  H    6.805036   7.894788   6.497594   6.713896   7.767091
    21  S    5.575015   6.619522   5.672495   5.410319   6.482155
    22  N    4.764939   5.709578   4.652294   5.120551   4.398069
    23  C    2.530934   2.848747   2.882425   3.437178   2.518805
    24  O    2.894185   2.874958   2.937709   3.968187   2.746841
    25  H    2.376894   2.240071   2.262969   3.465347   3.709665
    26  H    2.737112   3.530062   3.467422   2.382891   5.409188
                   16         17         18         19         20
    16  H    0.000000
    17  H    1.757057   0.000000
    18  H    1.774527   1.778240   0.000000
    19  C    6.542343   7.696851   6.959110   0.000000
    20  H    7.528625   8.738208   8.002856   1.081289   0.000000
    21  S    6.589435   7.404038   6.640143   1.749515   2.498951
    22  N    4.237936   5.383942   4.670025   2.331315   3.371298
    23  C    2.839406   2.808666   3.430617   5.757488   6.764106
    24  O    2.752863   2.684352   3.826914   6.645024   7.593024
    25  H    3.660919   3.610341   4.786060   6.808973   7.691771
    26  H    5.879043   5.875571   5.914238   4.832283   5.687605
                   21         22         23         24         25
    21  S    0.000000
    22  N    2.581241   0.000000
    23  C    5.389871   3.736106   0.000000
    24  O    6.528985   4.629941   1.366172   0.000000
    25  H    6.738258   5.009866   1.922490   0.965256   0.000000
    26  H    3.701671   3.999402   3.389339   4.560899   4.557570
                   26
    26  H    0.000000
 Symmetry turned off by external request.
 Stoichiometry    C11H12NOS(2)
 Framework group  C1[X(C11H12NOS)]
 Deg. of freedom    72
 Full point group                 C1      NOp   1
 Rotational constants (GHZ):           1.0108366           0.3889199           0.3609577
 Standard basis: 6-31G(d,p) (6D, 7F)
   274 basis functions,   500 primitive gaussians,   274 cartesian basis functions
    55 alpha electrons       54 beta electrons
       nuclear repulsion energy       947.2895602596 Hartrees.
 NAtoms=   26 NActive=   26 NUniq=   26 SFac= 1.00D+00 NAtFMM=   60 NAOKFM=F Big=F
 Integral buffers will be    131072 words long.
 Raffenetti 2 integral format.
 Two-electron integral symmetry is turned off.
 Nuclear repulsion after empirical dispersion term =      947.2665474301 Hartrees.
 One-electron integrals computed using PRISM.
 NBasis=   274 RedAO= T EigKep=  4.38D-04  NBF=   274
 NBsUse=   274 1.00D-06 EigRej= -1.00D+00 NBFU=   274
 Initial guess from the checkpoint file:  "/scratch/jcuzick/job_48780924/Gau-1202240.chk"
 B after Tr=    -0.000455    0.000273    0.001355
         Rot=    1.000000    0.000106   -0.000308    0.000181 Ang=   0.04 deg.
 Initial guess <Sx>= 0.0000 <Sy>= 0.0000 <Sz>= 0.5000 <S**2>= 0.7728 S= 0.5113
 ExpMin= 1.17D-01 ExpMax= 2.19D+04 ExpMxC= 3.30D+03 IAcc=3 IRadAn=         5 AccDes= 0.00D+00
 Harris functional with IExCor=  402 and IRadAn=       5 diagonalized for initial guess.
 HarFok:  IExCor=  402 AccDes= 0.00D+00 IRadAn=         5 IDoV= 1 UseB2=F ITyADJ=14
 ICtDFT=  3500011 ScaDFX=  1.000000  1.000000  1.000000  1.000000
 FoFCou: FMM=F IPFlag=           0 FMFlag=      100000 FMFlg1=           0
         NFxFlg=           0 DoJE=T BraDBF=F KetDBF=T FulRan=T
         wScrn=  0.000000 ICntrl=       500 IOpCl=  0 I1Cent=   200000004 NGrid=           0
         NMat0=    1 NMatS0=      1 NMatT0=    0 NMatD0=    1 NMtDS0=    0 NMtDT0=    0
 Symmetry not used in FoFCou.
 Requested convergence on RMS density matrix=1.00D-08 within 128 cycles.
 Requested convergence on MAX density matrix=1.00D-06.
 Requested convergence on             energy=1.00D-06.
 No special actions if energy rises.
 Integral accuracy reduced to 1.0D-05 until final iterations.
 Initial convergence to 1.0D-05 achieved.  Increase integral accuracy.
 SCF Done:  E(UB3LYP) =  -954.502517723     A.U. after   12 cycles
            NFock= 12  Conv=0.98D-08     -V/T= 2.0069
 <Sx>= 0.0000 <Sy>= 0.0000 <Sz>= 0.5000 <S**2>= 0.7729 S= 0.5114
 <L.S>= 0.000000000000E+00
 Annihilation of the first spin contaminant:
 S**2 before annihilation     0.7729,   after     0.7504
 Calling FoFJK, ICntrl=      2127 FMM=F ISym2X=0 I1Cent= 0 IOpClX= 1 NMat=1 NMatS=1 NMatT=0.
 -------------------------------------------------------------------
 Center     Atomic                   Forces (Hartrees/Bohr)
 Number     Number              X              Y              Z
 -------------------------------------------------------------------
      1        6          -0.000008752   -0.000056009    0.000032569
      2        1          -0.000005703   -0.000001727   -0.000003092
      3        6          -0.000011755   -0.000002246    0.000002602
      4        6           0.000025557    0.000003090   -0.000021825
      5        1          -0.000000980    0.000000694   -0.000001011
      6        6          -0.000000994    0.000022766   -0.000009867
      7        6           0.000012373    0.000027116    0.000017440
      8        6          -0.000007852   -0.000005980   -0.000004449
      9        6           0.000004825    0.000003830   -0.000005542
     10        1          -0.000000180    0.000000848   -0.000000503
     11        6          -0.000000372   -0.000000117   -0.000000130
     12        1          -0.000000023    0.000000084    0.000000039
     13        1           0.000000563    0.000000007   -0.000000549
     14        1           0.000000069   -0.000000167    0.000000304
     15        6          -0.000000820   -0.000000150   -0.000000090
     16        1           0.000000351    0.000000079   -0.000000519
     17        1           0.000000097   -0.000000006    0.000000044
     18        1          -0.000000483    0.000000142   -0.000000555
     19        6          -0.000004738    0.000002419   -0.000001017
     20        1          -0.000000184    0.000000107   -0.000000427
     21       16          -0.000000146    0.000001219   -0.000001868
     22        7          -0.000010529   -0.000000690   -0.000002535
     23        6           0.000003602    0.000001389    0.000001245
     24        8           0.000006648    0.000003366    0.000000251
     25        1          -0.000000236   -0.000000330   -0.000000872
     26        1          -0.000000340    0.000000268    0.000000358
 -------------------------------------------------------------------
 Cartesian Forces:  Max     0.000056009 RMS     0.000010023

 GradGradGradGradGradGradGradGradGradGradGradGradGradGradGradGradGradGrad
 Berny optimization.
 FormGI is forming the generalized inverse of G from B-inverse, IUseBI=4.
 Internal  Forces:  Max     0.000039736 RMS     0.000005564
 Search for a saddle point.
 Step number   8 out of a maximum of  142
 All quantities printed in internal units (Hartrees-Bohrs-Radians)
 Swapping is turned off.
 Update second derivatives using D2CorX and points    2    3    4    5    6
                                                      7    8
 ITU=  0  0  0  0  0  0  0  0
     Eigenvalues ---   -0.03285   0.00074   0.00137   0.00174   0.00291
     Eigenvalues ---    0.00535   0.00886   0.01341   0.01471   0.01519
     Eigenvalues ---    0.01609   0.01708   0.01846   0.01988   0.02552
     Eigenvalues ---    0.02756   0.03192   0.03922   0.03938   0.05147
     Eigenvalues ---    0.05185   0.05550   0.05750   0.05889   0.05910
     Eigenvalues ---    0.06048   0.06840   0.09198   0.11185   0.11826
     Eigenvalues ---    0.11984   0.12029   0.12271   0.12526   0.14436
     Eigenvalues ---    0.14651   0.14713   0.15137   0.15344   0.16906
     Eigenvalues ---    0.18515   0.19005   0.19112   0.19755   0.21070
     Eigenvalues ---    0.22065   0.22862   0.27345   0.31127   0.31649
     Eigenvalues ---    0.32621   0.33286   0.33505   0.33586   0.34195
     Eigenvalues ---    0.34603   0.34721   0.34918   0.35686   0.36006
     Eigenvalues ---    0.36535   0.36630   0.37363   0.39889   0.41040
     Eigenvalues ---    0.41200   0.45147   0.46322   0.48330   0.51939
     Eigenvalues ---    0.53182   0.57948
 Eigenvectors required to have negative eigenvalues:
                          R3        D14       D1        D2        D13
   1                   -0.90324  -0.15644   0.15517   0.14264  -0.14158
                          D15       D6        R4        D5        R2
   1                    0.10133  -0.10050   0.08983  -0.08797   0.08745
 RFO step:  Lambda0=5.931484228D-08 Lambda=-2.31358491D-08.
 Linear search not attempted -- option 19 set.
 Iteration  1 RMS(Cart)=  0.00084921 RMS(Int)=  0.00000051
 Iteration  2 RMS(Cart)=  0.00000068 RMS(Int)=  0.00000001
 Variable       Old X    -DE/DX   Delta X   Delta X   Delta X     New X
                                 (Linear)    (Quad)   (Total)
    R1        2.04946  -0.00001   0.00000   0.00000   0.00000   2.04946
    R2        2.67534  -0.00003   0.00000   0.00005   0.00005   2.67538
    R3        4.25884   0.00004   0.00000  -0.00097  -0.00097   4.25787
    R4        2.67469  -0.00003   0.00000   0.00004   0.00004   2.67473
    R5        2.62360   0.00001   0.00000  -0.00002  -0.00002   2.62358
    R6        2.85304   0.00000   0.00000  -0.00000  -0.00000   2.85304
    R7        2.66535  -0.00001   0.00000   0.00001   0.00001   2.66536
    R8        2.05153  -0.00000   0.00000  -0.00000  -0.00000   2.05153
    R9        2.61581   0.00000   0.00000  -0.00002  -0.00002   2.61579
   R10        3.34335   0.00000   0.00000   0.00002   0.00002   3.34337
   R11        2.41841   0.00001   0.00000   0.00004   0.00004   2.41846
   R12        2.05202  -0.00000   0.00000  -0.00000  -0.00000   2.05202
   R13        2.84493  -0.00000   0.00000  -0.00000  -0.00000   2.84493
   R14        2.66861  -0.00001   0.00000   0.00001   0.00001   2.66862
   R15        2.04860   0.00000   0.00000   0.00000   0.00000   2.04860
   R16        2.57527  -0.00000   0.00000  -0.00000  -0.00000   2.57526
   R17        2.62529   0.00001   0.00000  -0.00001  -0.00001   2.62528
   R18        2.07577  -0.00000   0.00000  -0.00000  -0.00000   2.07577
   R19        2.07636  -0.00000   0.00000  -0.00000  -0.00000   2.07636
   R20        2.06392  -0.00000   0.00000  -0.00000  -0.00000   2.06392
   R21        2.06973  -0.00000   0.00000  -0.00000  -0.00000   2.06973
   R22        2.06945  -0.00000   0.00000   0.00000   0.00000   2.06945
   R23        2.06485  -0.00000   0.00000  -0.00000  -0.00000   2.06485
   R24        2.04334   0.00000   0.00000   0.00000   0.00000   2.04334
   R25        3.30610   0.00000   0.00000  -0.00001  -0.00001   3.30609
   R26        2.58169  -0.00001   0.00000  -0.00001  -0.00001   2.58168
   R27        1.82407   0.00000   0.00000   0.00000   0.00000   1.82407
    A1        2.08411  -0.00000   0.00000  -0.00004  -0.00004   2.08407
    A2        1.58311   0.00000   0.00000   0.00011   0.00011   1.58323
    A3        2.08216  -0.00000   0.00000  -0.00007  -0.00007   2.08209
    A4        1.72647  -0.00000   0.00000   0.00011   0.00011   1.72657
    A5        2.07126   0.00001   0.00000  -0.00002  -0.00002   2.07124
    A6        1.68502  -0.00000   0.00000   0.00020   0.00020   1.68522
    A7        2.12469   0.00000   0.00000   0.00000   0.00000   2.12469
    A8        2.06208  -0.00000   0.00000   0.00000   0.00000   2.06208
    A9        2.09642   0.00000   0.00000  -0.00000  -0.00000   2.09641
   A10        2.08272  -0.00000   0.00000  -0.00001  -0.00001   2.08271
   A11        2.11482   0.00000   0.00000  -0.00000  -0.00000   2.11481
   A12        2.08311  -0.00000   0.00000   0.00001   0.00001   2.08312
   A13        2.14588   0.00000   0.00000   0.00014   0.00014   2.14602
   A14        2.07113   0.00000   0.00000   0.00008   0.00008   2.07121
   A15        2.00252  -0.00001   0.00000  -0.00003  -0.00003   2.00249
   A16        2.11190   0.00000   0.00000  -0.00000  -0.00000   2.11190
   A17        2.08475  -0.00000   0.00000  -0.00001  -0.00001   2.08474
   A18        2.08452  -0.00000   0.00000   0.00001   0.00001   2.08453
   A19        2.13866   0.00000   0.00000   0.00000   0.00000   2.13867
   A20        2.06156  -0.00000   0.00000   0.00000   0.00000   2.06156
   A21        2.08296   0.00000   0.00000  -0.00000  -0.00000   2.08295
   A22        2.18105  -0.00000   0.00000  -0.00001  -0.00001   2.18103
   A23        2.08107  -0.00000   0.00000  -0.00000  -0.00000   2.08107
   A24        2.02107   0.00000   0.00000   0.00002   0.00002   2.02108
   A25        1.95684  -0.00000   0.00000  -0.00000  -0.00000   1.95684
   A26        1.95078   0.00000   0.00000  -0.00000  -0.00000   1.95077
   A27        1.93578  -0.00000   0.00000  -0.00000  -0.00000   1.93578
   A28        1.87991   0.00000   0.00000   0.00000   0.00000   1.87991
   A29        1.87036  -0.00000   0.00000   0.00000   0.00000   1.87036
   A30        1.86567  -0.00000   0.00000   0.00000   0.00000   1.86567
   A31        1.92942  -0.00000   0.00000  -0.00000  -0.00000   1.92942
   A32        1.94273   0.00000   0.00000   0.00000   0.00000   1.94273
   A33        1.93765  -0.00000   0.00000   0.00000   0.00000   1.93765
   A34        1.86186   0.00000   0.00000   0.00000   0.00000   1.86186
   A35        1.89190   0.00000   0.00000   0.00000   0.00000   1.89191
   A36        1.89790   0.00000   0.00000  -0.00000  -0.00000   1.89790
   A37        2.24033   0.00000   0.00000  -0.00000  -0.00000   2.24033
   A38        1.91043  -0.00000   0.00000  -0.00001  -0.00001   1.91043
   A39        2.13237   0.00000   0.00000   0.00001   0.00001   2.13238
   A40        1.54300   0.00001   0.00000   0.00002   0.00002   1.54301
   A41        1.94730   0.00000   0.00000  -0.00000  -0.00000   1.94730
   A42        2.13302  -0.00000   0.00000   0.00000   0.00000   2.13302
   A43        2.12801   0.00000   0.00000   0.00000   0.00000   2.12801
   A44        2.02193   0.00000   0.00000  -0.00000  -0.00000   2.02193
   A45        1.91816   0.00000   0.00000   0.00000   0.00000   1.91816
    D1        0.23744  -0.00000   0.00000   0.00038   0.00038   0.23782
    D2       -2.98116  -0.00000   0.00000   0.00033   0.00033  -2.98083
    D3       -1.43632  -0.00000   0.00000   0.00020   0.00020  -1.43612
    D4        1.62827  -0.00000   0.00000   0.00014   0.00014   1.62841
    D5        3.05700   0.00000   0.00000  -0.00010  -0.00010   3.05690
    D6       -0.16160   0.00000   0.00000  -0.00015  -0.00015  -0.16175
    D7        0.75090  -0.00000   0.00000  -0.00192  -0.00192   0.74898
    D8       -2.78651  -0.00000   0.00000  -0.00135  -0.00135  -2.78786
    D9        2.84419  -0.00000   0.00000  -0.00193  -0.00193   2.84226
   D10       -0.69322  -0.00000   0.00000  -0.00136  -0.00136  -0.69458
   D11       -1.33661   0.00000   0.00000  -0.00188  -0.00188  -1.33849
   D12        1.40916   0.00000   0.00000  -0.00131  -0.00131   1.40786
   D13        2.97820   0.00000   0.00000  -0.00031  -0.00031   2.97790
   D14       -0.23188   0.00000   0.00000  -0.00036  -0.00036  -0.23224
   D15        0.15828  -0.00000   0.00000   0.00016   0.00016   0.15845
   D16       -3.05180  -0.00000   0.00000   0.00011   0.00011  -3.05169
   D17       -1.65551   0.00000   0.00000  -0.00008  -0.00008  -1.65559
   D18        1.41759   0.00000   0.00000  -0.00013  -0.00013   1.41746
   D19        3.07926   0.00000   0.00000  -0.00006  -0.00006   3.07921
   D20        0.00615   0.00000   0.00000  -0.00000  -0.00000   0.00615
   D21       -0.06044   0.00000   0.00000  -0.00008  -0.00008  -0.06052
   D22       -3.13355   0.00000   0.00000  -0.00002  -0.00002  -3.13358
   D23        2.13850   0.00000   0.00000   0.00010   0.00010   2.13860
   D24       -2.03181   0.00000   0.00000   0.00010   0.00010  -2.03170
   D25        0.04835   0.00000   0.00000   0.00010   0.00010   0.04845
   D26       -1.00502   0.00000   0.00000   0.00012   0.00012  -1.00489
   D27        1.10786   0.00000   0.00000   0.00013   0.00013   1.10799
   D28       -3.09516   0.00000   0.00000   0.00012   0.00012  -3.09504
   D29       -0.03846   0.00000   0.00000  -0.00002  -0.00002  -0.03848
   D30        3.12688  -0.00000   0.00000   0.00001   0.00001   3.12689
   D31        3.10499   0.00000   0.00000  -0.00004  -0.00004   3.10495
   D32       -0.01285   0.00000   0.00000  -0.00002  -0.00002  -0.01287
   D33       -3.06982  -0.00000   0.00000   0.00004   0.00004  -3.06977
   D34        0.06644  -0.00000   0.00000   0.00005   0.00005   0.06650
   D35       -0.00525  -0.00000   0.00000  -0.00001  -0.00001  -0.00526
   D36        3.13101  -0.00000   0.00000   0.00000   0.00000   3.13101
   D37        2.78308   0.00000   0.00000   0.00055   0.00055   2.78363
   D38        0.02316   0.00000   0.00000  -0.00001  -0.00001   0.02315
   D39       -2.80857  -0.00000   0.00000  -0.00054  -0.00054  -2.80911
   D40       -0.03121  -0.00000   0.00000   0.00002   0.00002  -0.03119
   D41        2.04779  -0.00000   0.00000   0.00008   0.00008   2.04787
   D42       -2.16943  -0.00000   0.00000   0.00008   0.00008  -2.16935
   D43       -0.05253   0.00000   0.00000   0.00008   0.00008  -0.05245
   D44       -1.08841   0.00000   0.00000   0.00007   0.00007  -1.08834
   D45        0.97756   0.00000   0.00000   0.00007   0.00007   0.97763
   D46        3.09446   0.00000   0.00000   0.00007   0.00007   3.09453
   D47        0.03554  -0.00000   0.00000   0.00004   0.00004   0.03558
   D48       -3.12844   0.00000   0.00000   0.00001   0.00001  -3.12843
   D49       -3.11120  -0.00000   0.00000   0.00004   0.00004  -3.11116
   D50        0.00799  -0.00000   0.00000   0.00002   0.00002   0.00801
   D51        0.00545  -0.00000   0.00000  -0.00002  -0.00002   0.00543
   D52        3.13645  -0.00000   0.00000  -0.00000  -0.00000   3.13645
   D53       -3.13856  -0.00000   0.00000  -0.00002  -0.00002  -3.13858
   D54       -0.00757  -0.00000   0.00000   0.00000   0.00000  -0.00756
   D55       -3.11851   0.00000   0.00000  -0.00001  -0.00001  -3.11852
   D56        0.02536   0.00000   0.00000  -0.00001  -0.00001   0.02535
   D57       -0.00768  -0.00000   0.00000   0.00001   0.00001  -0.00768
   D58        3.12409  -0.00000   0.00000   0.00002   0.00002   3.12411
   D59       -0.06673   0.00000   0.00000  -0.00010  -0.00010  -0.06683
   D60        3.09719  -0.00000   0.00000  -0.00008  -0.00008   3.09711
         Item               Value     Threshold  Converged?
 Maximum Force            0.000040     0.000450     YES
 RMS     Force            0.000006     0.000300     YES
 Maximum Displacement     0.003713     0.001800     NO 
 RMS     Displacement     0.000849     0.001200     YES
 Predicted change in Energy= 1.808931D-08
 GradGradGradGradGradGradGradGradGradGradGradGradGradGradGradGradGradGrad

                          Input orientation:                          
 ---------------------------------------------------------------------
 Center     Atomic      Atomic             Coordinates (Angstroms)
 Number     Number       Type             X           Y           Z
 ---------------------------------------------------------------------
      1          6           0        4.743069   -2.163372    2.163328
      2          1           0        5.746661   -1.770403    2.284080
      3          6           0        3.279773   -3.803478    1.103139
      4          6           0        3.807878   -2.017082    3.216119
      5          1           0        4.025174   -1.331023    4.028940
      6          6           0        4.160291   -0.372321    0.926687
      7          6           0        4.495636   -3.136179    1.165434
      8          6           0        2.584168   -2.663186    3.182318
      9          6           0        2.689604    0.737864   -0.289791
     10          1           0        1.679758    1.072453   -0.498294
     11          6           0        2.968588   -4.785693   -0.000404
     12          1           0        2.714532   -5.780256    0.390615
     13          1           0        2.128966   -4.446760   -0.622854
     14          1           0        3.826382   -4.910090   -0.664914
     15          6           0        1.531342   -2.459131    4.238900
     16          1           0        0.628347   -2.019521    3.801953
     17          1           0        1.230896   -3.410551    4.690334
     18          1           0        1.891489   -1.794428    5.027824
     19          6           0        3.788318    1.064318   -1.026949
     20          1           0        3.844300    1.690108   -1.906970
     21         16           0        5.204515    0.313200   -0.326247
     22          7           0        2.918258   -0.089976    0.802169
     23          6           0        2.323963   -3.539954    2.106304
     24          8           0        1.096748   -4.140234    2.110491
     25          1           0        0.995414   -4.686415    1.321101
     26          1           0        5.243812   -3.317657    0.399642
 ---------------------------------------------------------------------
                    Distance matrix (angstroms):
                    1          2          3          4          5
     1  C    0.000000
     2  H    1.084529   0.000000
     3  C    2.440325   3.407866   0.000000
     4  C    1.415751   2.165278   2.816876   0.000000
     5  H    2.165338   2.490204   3.902432   1.085621   0.000000
     6  C    2.253170   2.512711   3.546729   2.840939   3.249822
     7  C    1.415405   2.163741   1.388341   2.435303   3.417542
     8  C    2.439059   3.406649   2.471258   1.384218   2.137270
     9  C    4.318759   4.718243   4.786684   4.596920   4.971466
    10  H    5.190247   5.688861   5.375810   5.279298   5.636800
    11  C    3.834982   4.693456   1.509765   4.326157   5.411722
    12  H    4.509914   5.371958   2.175968   4.831186   5.894987
    13  H    4.450866   5.357319   2.171916   4.843531   5.911227
    14  H    4.047682   4.716108   2.156243   4.840688   5.906057
    15  C    3.835448   4.697295   3.833703   2.534581   2.745160
    16  H    4.431335   5.344450   4.182842   3.233052   3.473325
    17  H    4.502952   5.373294   4.149730   3.279619   3.545401
    18  H    4.058690   4.731920   4.622420   2.646582   2.401067
    19  C    4.637607   4.778458   5.337727   5.243952   5.599622
    20  H    5.676656   5.758387   6.289589   6.323814   6.662956
    21  S    3.541796   3.383656   4.763907   4.464209   4.802288
    22  N    3.079230   3.608290   3.743177   3.214392   3.630084
    23  C    2.783937   3.857172   1.410446   2.398506   3.386743
    24  O    4.148064   5.221870   2.427707   3.616685   4.488629
    25  H    4.595652   5.657279   2.458736   4.315830   5.269772
    26  H    2.166496   2.489569   2.142051   3.418471   4.313189
                    6          7          8          9         10
     6  C    0.000000
     7  C    2.794346   0.000000
     8  C    3.580516   2.818733   0.000000
     9  C    2.207997   4.515268   4.861460   0.000000
    10  H    3.204838   5.330079   5.321640   1.084072   0.000000
    11  C    4.664494   2.532182   3.844806   5.538164   6.018874
    12  H    5.623464   3.280826   4.186493   6.553584   6.987169
    13  H    4.809200   3.242949   4.227017   5.225473   5.538863
    14  H    4.820377   2.635305   4.625242   5.773419   6.358189
    15  C    4.715602   4.323381   1.505472   5.663161   5.910593
    16  H    4.843042   4.811870   2.150230   5.347366   5.399805
    17  H    5.654842   4.812352   2.159633   6.643706   6.871729
    18  H    4.897875   4.847673   2.154167   5.943612   6.229110
    19  C    2.453362   4.790722   5.749972   1.362771   2.173837
    20  H    3.518960   5.758208   6.814686   2.203488   2.655393
    21  S    1.769233   3.824374   5.294819   2.550774   3.609707
    22  N    1.279793   3.449556   3.521098   1.389237   2.139235
    23  C    3.846751   2.400924   1.412174   4.916776   5.336031
    24  O    4.998386   3.667929   2.354337   5.665191   5.858137
    25  H    5.365018   3.831321   3.175173   5.906611   6.078082
    26  H    3.182262   1.085882   3.904526   4.842164   5.725542
                   11         12         13         14         15
    11  C    0.000000
    12  H    1.098452   0.000000
    13  H    1.098765   1.774321   0.000000
    14  H    1.092180   1.762822   1.760018   0.000000
    15  C    5.044826   5.219110   5.286253   5.943215   0.000000
    16  H    5.252272   5.489310   5.265194   6.207715   1.095254
    17  H    5.187834   5.128768   5.487279   6.137088   1.095108
    18  H    5.949024   6.169921   6.246712   6.771885   1.092674
    19  C    5.995696   7.071824   5.769637   5.985488   6.725904
    20  H    6.807192   7.896936   6.500190   6.716073   7.767733
    21  S    5.577118   6.621488   5.674874   5.412643   6.482174
    22  N    4.764075   5.708780   4.651370   5.119621   4.398585
    23  C    2.530934   2.848699   2.882468   3.437177   2.518808
    24  O    2.894181   2.874869   2.937790   3.968180   2.746835
    25  H    2.376899   2.240012   2.263037   3.465352   3.709659
    26  H    2.737117   3.530118   3.467368   2.382904   5.409196
                   16         17         18         19         20
    16  H    0.000000
    17  H    1.757057   0.000000
    18  H    1.774529   1.778239   0.000000
    19  C    6.543223   7.697544   6.959214   0.000000
    20  H    7.529642   8.739052   8.002926   1.081289   0.000000
    21  S    6.589760   7.404192   6.639602   1.749507   2.498950
    22  N    4.238578   5.384351   4.670714   2.331323   3.371303
    23  C    2.839376   2.808692   3.430622   5.758552   6.765452
    24  O    2.752793   2.684404   3.826911   6.646461   7.594862
    25  H    3.660833   3.610404   4.786056   6.810622   7.693935
    26  H    5.879065   5.875557   5.914251   4.832735   5.688304
                   21         22         23         24         25
    21  S    0.000000
    22  N    2.581248   0.000000
    23  C    5.390889   3.735814   0.000000
    24  O    6.530277   4.629709   1.366166   0.000000
    25  H    6.739914   5.009379   1.922488   0.965257   0.000000
    26  H    3.702915   3.998519   3.389341   4.560897   4.557573
                   26
    26  H    0.000000
 Symmetry turned off by external request.
 Stoichiometry    C11H12NOS(2)
 Framework group  C1[X(C11H12NOS)]
 Deg. of freedom    72
 Full point group                 C1      NOp   1
 Rotational constants (GHZ):           1.0110602           0.3888239           0.3608951
 Standard basis: 6-31G(d,p) (6D, 7F)
   274 basis functions,   500 primitive gaussians,   274 cartesian basis functions
    55 alpha electrons       54 beta electrons
       nuclear repulsion energy       947.2761482420 Hartrees.
 NAtoms=   26 NActive=   26 NUniq=   26 SFac= 1.00D+00 NAtFMM=   60 NAOKFM=F Big=F
 Integral buffers will be    131072 words long.
 Raffenetti 2 integral format.
 Two-electron integral symmetry is turned off.
 Nuclear repulsion after empirical dispersion term =      947.2531365690 Hartrees.
 One-electron integrals computed using PRISM.
 NBasis=   274 RedAO= T EigKep=  4.38D-04  NBF=   274
 NBsUse=   274 1.00D-06 EigRej= -1.00D+00 NBFU=   274
 Initial guess from the checkpoint file:  "/scratch/jcuzick/job_48780924/Gau-1202240.chk"
 B after Tr=     0.000063    0.000024   -0.000225
         Rot=    1.000000   -0.000033    0.000054   -0.000035 Ang=  -0.01 deg.
 Initial guess <Sx>= 0.0000 <Sy>= 0.0000 <Sz>= 0.5000 <S**2>= 0.7729 S= 0.5114
 Requested convergence on RMS density matrix=1.00D-08 within 128 cycles.
 Requested convergence on MAX density matrix=1.00D-06.
 Requested convergence on             energy=1.00D-06.
 No special actions if energy rises.
 SCF Done:  E(UB3LYP) =  -954.502517692     A.U. after   10 cycles
            NFock= 10  Conv=0.68D-08     -V/T= 2.0069
 <Sx>= 0.0000 <Sy>= 0.0000 <Sz>= 0.5000 <S**2>= 0.7729 S= 0.5114
 <L.S>= 0.000000000000E+00
 Annihilation of the first spin contaminant:
 S**2 before annihilation     0.7729,   after     0.7504
 Calling FoFJK, ICntrl=      2127 FMM=F ISym2X=0 I1Cent= 0 IOpClX= 1 NMat=1 NMatS=1 NMatT=0.
 -------------------------------------------------------------------
 Center     Atomic                   Forces (Hartrees/Bohr)
 Number     Number              X              Y              Z
 -------------------------------------------------------------------
      1        6          -0.000003204   -0.000026836    0.000015868
      2        1          -0.000003599    0.000000478   -0.000001274
      3        6          -0.000006200   -0.000001118    0.000001526
      4        6           0.000011856    0.000000022   -0.000011023
      5        1          -0.000000514    0.000000281   -0.000000436
      6        6          -0.000001180    0.000010387   -0.000005962
      7        6           0.000006266    0.000012961    0.000009529
      8        6          -0.000004271   -0.000002946   -0.000002571
      9        6           0.000001291    0.000001576   -0.000001858
     10        1           0.000000003    0.000000420   -0.000000283
     11        6          -0.000000173   -0.000000080   -0.000000070
     12        1          -0.000000014    0.000000052   -0.000000003
     13        1           0.000000401    0.000000077   -0.000000332
     14        1           0.000000200   -0.000000110    0.000000207
     15        6          -0.000000593   -0.000000096   -0.000000211
     16        1          -0.000000064   -0.000000031   -0.000000281
     17        1          -0.000000136    0.000000013   -0.000000064
     18        1          -0.000000396    0.000000068   -0.000000309
     19        6          -0.000001208    0.000001327   -0.000000852
     20        1           0.000000042    0.000000186   -0.000000016
     21       16           0.000000415    0.000000449   -0.000001812
     22        7          -0.000003885    0.000000494   -0.000000099
     23        6           0.000001748    0.000000666    0.000000465
     24        8           0.000003466    0.000001672    0.000000084
     25        1          -0.000000130   -0.000000088   -0.000000560
     26        1          -0.000000124    0.000000175    0.000000335
 -------------------------------------------------------------------
 Cartesian Forces:  Max     0.000026836 RMS     0.000004843

 GradGradGradGradGradGradGradGradGradGradGradGradGradGradGradGradGradGrad
 Berny optimization.
 FormGI is forming the generalized inverse of G from B-inverse, IUseBI=4.
 Internal  Forces:  Max     0.000019411 RMS     0.000002694
 Search for a saddle point.
 Step number   9 out of a maximum of  142
 All quantities printed in internal units (Hartrees-Bohrs-Radians)
 Swapping is turned off.
 Update second derivatives using D2CorX and points    2    3    4    5    6
                                                      7    8    9
 ITU=  0  0  0  0  0  0  0  0  0
     Eigenvalues ---   -0.02747   0.00016   0.00137   0.00173   0.00275
     Eigenvalues ---    0.00535   0.00887   0.01341   0.01470   0.01519
     Eigenvalues ---    0.01609   0.01707   0.01844   0.01988   0.02552
     Eigenvalues ---    0.02756   0.03179   0.03923   0.03925   0.05147
     Eigenvalues ---    0.05171   0.05551   0.05750   0.05889   0.05910
     Eigenvalues ---    0.06048   0.06841   0.09198   0.11185   0.11826
     Eigenvalues ---    0.11984   0.12029   0.12271   0.12526   0.14436
     Eigenvalues ---    0.14651   0.14713   0.15134   0.15344   0.16906
     Eigenvalues ---    0.18515   0.19006   0.19112   0.19755   0.21070
     Eigenvalues ---    0.22072   0.22862   0.27345   0.31127   0.31649
     Eigenvalues ---    0.32621   0.33286   0.33505   0.33586   0.34195
     Eigenvalues ---    0.34604   0.34721   0.34919   0.35688   0.36006
     Eigenvalues ---    0.36536   0.36634   0.37363   0.39897   0.41045
     Eigenvalues ---    0.41213   0.45147   0.46325   0.48339   0.51941
     Eigenvalues ---    0.53182   0.57954
 Eigenvectors required to have negative eigenvalues:
                          R3        D14       D1        D2        D13
   1                   -0.89976  -0.15555   0.15396   0.14199  -0.14096
                          D15       D6        D5        D16       R4
   1                    0.10300  -0.10227  -0.09030   0.08841   0.08578
 RFO step:  Lambda0=1.652837357D-08 Lambda=-3.03953466D-08.
 Linear search not attempted -- option 19 set.
 Iteration  1 RMS(Cart)=  0.00270207 RMS(Int)=  0.00000502
 Iteration  2 RMS(Cart)=  0.00000724 RMS(Int)=  0.00000018
 Iteration  3 RMS(Cart)=  0.00000000 RMS(Int)=  0.00000018
 Variable       Old X    -DE/DX   Delta X   Delta X   Delta X     New X
                                 (Linear)    (Quad)   (Total)
    R1        2.04946  -0.00000   0.00000   0.00000   0.00000   2.04946
    R2        2.67538  -0.00001   0.00000  -0.00002  -0.00002   2.67536
    R3        4.25787   0.00002   0.00000   0.00024   0.00024   4.25811
    R4        2.67473  -0.00001   0.00000   0.00002   0.00002   2.67475
    R5        2.62358   0.00000   0.00000   0.00000   0.00000   2.62359
    R6        2.85304   0.00000   0.00000   0.00000   0.00000   2.85305
    R7        2.66536  -0.00001   0.00000   0.00001   0.00001   2.66537
    R8        2.05153  -0.00000   0.00000  -0.00000  -0.00000   2.05152
    R9        2.61579   0.00000   0.00000  -0.00000  -0.00000   2.61579
   R10        3.34337   0.00000   0.00000   0.00001   0.00001   3.34337
   R11        2.41846   0.00000   0.00000  -0.00001  -0.00001   2.41845
   R12        2.05202  -0.00000   0.00000  -0.00000  -0.00000   2.05202
   R13        2.84493  -0.00000   0.00000  -0.00000  -0.00000   2.84493
   R14        2.66862  -0.00000   0.00000   0.00001   0.00001   2.66863
   R15        2.04860   0.00000   0.00000  -0.00000  -0.00000   2.04860
   R16        2.57526  -0.00000   0.00000  -0.00002  -0.00002   2.57525
   R17        2.62528   0.00000   0.00000   0.00001   0.00001   2.62529
   R18        2.07577  -0.00000   0.00000   0.00000   0.00000   2.07577
   R19        2.07636   0.00000   0.00000   0.00000   0.00000   2.07637
   R20        2.06392  -0.00000   0.00000  -0.00000  -0.00000   2.06392
   R21        2.06973  -0.00000   0.00000   0.00000   0.00000   2.06973
   R22        2.06945  -0.00000   0.00000  -0.00000  -0.00000   2.06945
   R23        2.06485  -0.00000   0.00000  -0.00000  -0.00000   2.06485
   R24        2.04334   0.00000   0.00000  -0.00000  -0.00000   2.04334
   R25        3.30609   0.00000   0.00000   0.00001   0.00001   3.30610
   R26        2.58168  -0.00000   0.00000   0.00001   0.00001   2.58169
   R27        1.82407   0.00000   0.00000   0.00000   0.00000   1.82407
    A1        2.08407  -0.00000   0.00000   0.00000   0.00000   2.08407
    A2        1.58323   0.00000   0.00000   0.00021   0.00021   1.58344
    A3        2.08209  -0.00000   0.00000   0.00005   0.00005   2.08214
    A4        1.72657  -0.00000   0.00000  -0.00005  -0.00005   1.72652
    A5        2.07124   0.00000   0.00000   0.00002   0.00002   2.07127
    A6        1.68522  -0.00000   0.00000  -0.00039  -0.00039   1.68483
    A7        2.12469   0.00000   0.00000   0.00000   0.00000   2.12469
    A8        2.06208  -0.00000   0.00000  -0.00001  -0.00001   2.06208
    A9        2.09641   0.00000   0.00000   0.00000   0.00000   2.09642
   A10        2.08271  -0.00000   0.00000   0.00001   0.00001   2.08272
   A11        2.11481   0.00000   0.00000  -0.00001  -0.00001   2.11481
   A12        2.08312  -0.00000   0.00000  -0.00000  -0.00000   2.08312
   A13        2.14602   0.00000   0.00000  -0.00076  -0.00076   2.14526
   A14        2.07121   0.00000   0.00000  -0.00007  -0.00007   2.07114
   A15        2.00249  -0.00000   0.00000  -0.00000  -0.00000   2.00249
   A16        2.11190   0.00000   0.00000  -0.00001  -0.00001   2.11189
   A17        2.08474  -0.00000   0.00000   0.00001   0.00001   2.08476
   A18        2.08453  -0.00000   0.00000  -0.00000  -0.00000   2.08453
   A19        2.13867   0.00000   0.00000  -0.00001  -0.00001   2.13866
   A20        2.06156  -0.00000   0.00000   0.00000   0.00000   2.06156
   A21        2.08295   0.00000   0.00000   0.00000   0.00000   2.08295
   A22        2.18103  -0.00000   0.00000   0.00001   0.00001   2.18104
   A23        2.08107  -0.00000   0.00000  -0.00001  -0.00001   2.08106
   A24        2.02108   0.00000   0.00000  -0.00000  -0.00000   2.02108
   A25        1.95684  -0.00000   0.00000  -0.00000  -0.00000   1.95684
   A26        1.95077   0.00000   0.00000   0.00001   0.00001   1.95078
   A27        1.93578  -0.00000   0.00000  -0.00000  -0.00000   1.93578
   A28        1.87991   0.00000   0.00000  -0.00001  -0.00001   1.87990
   A29        1.87036   0.00000   0.00000   0.00001   0.00001   1.87037
   A30        1.86567  -0.00000   0.00000  -0.00001  -0.00001   1.86566
   A31        1.92942  -0.00000   0.00000  -0.00001  -0.00001   1.92941
   A32        1.94273   0.00000   0.00000   0.00001   0.00001   1.94274
   A33        1.93765  -0.00000   0.00000  -0.00000  -0.00000   1.93765
   A34        1.86186   0.00000   0.00000   0.00001   0.00001   1.86188
   A35        1.89191   0.00000   0.00000  -0.00002  -0.00002   1.89189
   A36        1.89790   0.00000   0.00000   0.00002   0.00002   1.89792
   A37        2.24033  -0.00000   0.00000   0.00001   0.00001   2.24034
   A38        1.91043  -0.00000   0.00000   0.00001   0.00000   1.91043
   A39        2.13238   0.00000   0.00000  -0.00001  -0.00001   2.13237
   A40        1.54301   0.00000   0.00000  -0.00000  -0.00000   1.54301
   A41        1.94730   0.00000   0.00000   0.00000   0.00000   1.94731
   A42        2.13302  -0.00000   0.00000   0.00001   0.00001   2.13303
   A43        2.12801   0.00000   0.00000  -0.00001  -0.00001   2.12801
   A44        2.02193   0.00000   0.00000   0.00000   0.00000   2.02193
   A45        1.91816   0.00000   0.00000   0.00000   0.00000   1.91816
    D1        0.23782  -0.00000   0.00000  -0.00020  -0.00020   0.23762
    D2       -2.98083  -0.00000   0.00000  -0.00020  -0.00020  -2.98104
    D3       -1.43612  -0.00000   0.00000  -0.00042  -0.00042  -1.43654
    D4        1.62841  -0.00000   0.00000  -0.00043  -0.00043   1.62799
    D5        3.05690   0.00000   0.00000   0.00006   0.00006   3.05696
    D6       -0.16175   0.00000   0.00000   0.00006   0.00006  -0.16169
    D7        0.74898   0.00000   0.00000   0.00610   0.00610   0.75508
    D8       -2.78786   0.00000   0.00000   0.00364   0.00364  -2.78422
    D9        2.84226  -0.00000   0.00000   0.00614   0.00614   2.84840
   D10       -0.69458  -0.00000   0.00000   0.00368   0.00368  -0.69090
   D11       -1.33849   0.00000   0.00000   0.00605   0.00605  -1.33244
   D12        1.40786   0.00000   0.00000   0.00359   0.00359   1.41145
   D13        2.97790   0.00000   0.00000   0.00017   0.00017   2.97806
   D14       -0.23224   0.00000   0.00000   0.00019   0.00019  -0.23205
   D15        0.15845  -0.00000   0.00000  -0.00009  -0.00009   0.15836
   D16       -3.05169  -0.00000   0.00000  -0.00006  -0.00006  -3.05175
   D17       -1.65559   0.00000   0.00000   0.00020   0.00020  -1.65539
   D18        1.41746   0.00000   0.00000   0.00022   0.00022   1.41769
   D19        3.07921   0.00000   0.00000   0.00005   0.00005   3.07925
   D20        0.00615   0.00000   0.00000   0.00002   0.00002   0.00617
   D21       -0.06052   0.00000   0.00000   0.00005   0.00005  -0.06047
   D22       -3.13358   0.00000   0.00000   0.00002   0.00002  -3.13355
   D23        2.13860   0.00000   0.00000  -0.00057  -0.00057   2.13803
   D24       -2.03170   0.00000   0.00000  -0.00057  -0.00057  -2.03227
   D25        0.04845   0.00000   0.00000  -0.00058  -0.00058   0.04788
   D26       -1.00489   0.00000   0.00000  -0.00057  -0.00057  -1.00547
   D27        1.10799   0.00000   0.00000  -0.00057  -0.00057   1.10742
   D28       -3.09504   0.00000   0.00000  -0.00058  -0.00058  -3.09562
   D29       -0.03848   0.00000   0.00000   0.00002   0.00002  -0.03846
   D30        3.12689  -0.00000   0.00000  -0.00002  -0.00002   3.12686
   D31        3.10495   0.00000   0.00000   0.00002   0.00002   3.10497
   D32       -0.01287   0.00000   0.00000  -0.00002  -0.00002  -0.01289
   D33       -3.06977  -0.00000   0.00000   0.00003   0.00003  -3.06974
   D34        0.06650  -0.00000   0.00000   0.00000   0.00000   0.06650
   D35       -0.00526  -0.00000   0.00000   0.00003   0.00003  -0.00523
   D36        3.13101  -0.00000   0.00000  -0.00000  -0.00000   3.13101
   D37        2.78363   0.00000   0.00000  -0.00224  -0.00224   2.78139
   D38        0.02315   0.00000   0.00000   0.00014   0.00014   0.02328
   D39       -2.80911  -0.00000   0.00000   0.00225   0.00225  -2.80686
   D40       -0.03119  -0.00000   0.00000  -0.00018  -0.00018  -0.03137
   D41        2.04787  -0.00000   0.00000  -0.00041  -0.00041   2.04745
   D42       -2.16935   0.00000   0.00000  -0.00040  -0.00040  -2.16975
   D43       -0.05245   0.00000   0.00000  -0.00038  -0.00038  -0.05283
   D44       -1.08834   0.00000   0.00000  -0.00038  -0.00038  -1.08872
   D45        0.97763   0.00000   0.00000  -0.00037  -0.00037   0.97726
   D46        3.09453   0.00000   0.00000  -0.00035  -0.00035   3.09418
   D47        0.03558  -0.00000   0.00000  -0.00004  -0.00004   0.03554
   D48       -3.12843   0.00000   0.00000  -0.00001  -0.00001  -3.12844
   D49       -3.11116  -0.00000   0.00000  -0.00007  -0.00007  -3.11123
   D50        0.00801  -0.00000   0.00000  -0.00004  -0.00004   0.00798
   D51        0.00543  -0.00000   0.00000   0.00005   0.00005   0.00548
   D52        3.13645  -0.00000   0.00000  -0.00002  -0.00002   3.13643
   D53       -3.13858  -0.00000   0.00000   0.00002   0.00002  -3.13855
   D54       -0.00756  -0.00000   0.00000  -0.00005  -0.00005  -0.00761
   D55       -3.11852   0.00000   0.00000   0.00013   0.00013  -3.11839
   D56        0.02535   0.00000   0.00000   0.00015   0.00015   0.02550
   D57       -0.00768  -0.00000   0.00000  -0.00004  -0.00004  -0.00772
   D58        3.12411  -0.00000   0.00000  -0.00011  -0.00011   3.12401
   D59       -0.06683   0.00000   0.00000   0.00041   0.00041  -0.06642
   D60        3.09711  -0.00000   0.00000   0.00037   0.00037   3.09749
         Item               Value     Threshold  Converged?
 Maximum Force            0.000019     0.000450     YES
 RMS     Force            0.000003     0.000300     YES
 Maximum Displacement     0.013823     0.001800     NO 
 RMS     Displacement     0.002704     0.001200     NO 
 Predicted change in Energy=-6.931180D-09
 GradGradGradGradGradGradGradGradGradGradGradGradGradGradGradGradGradGrad

                          Input orientation:                          
 ---------------------------------------------------------------------
 Center     Atomic      Atomic             Coordinates (Angstroms)
 Number     Number       Type             X           Y           Z
 ---------------------------------------------------------------------
      1          6           0        4.743645   -2.163336    2.164583
      2          1           0        5.747249   -1.770578    2.285927
      3          6           0        3.280332   -3.802448    1.102867
      4          6           0        3.808002   -2.017244    3.216985
      5          1           0        4.025116   -1.331639    4.030235
      6          6           0        4.161300   -0.371921    0.928036
      7          6           0        4.496368   -3.135543    1.166049
      8          6           0        2.584105   -2.662943    3.182284
      9          6           0        2.689296    0.737912   -0.287177
     10          1           0        1.679555    1.074168   -0.493494
     11          6           0        2.969358   -4.784026   -0.001304
     12          1           0        2.715382   -5.778858    0.389086
     13          1           0        2.129752   -4.444823   -0.623628
     14          1           0        3.827222   -4.907911   -0.665817
     15          6           0        1.530822   -2.459016    4.238432
     16          1           0        0.628342   -2.018535    3.801294
     17          1           0        1.229550   -3.410575    4.689016
     18          1           0        1.890930   -1.795083    5.028019
     19          6           0        3.786418    1.059696   -1.028728
     20          1           0        3.841064    1.682793   -1.910743
     21         16           0        5.203120    0.307464   -0.330236
     22          7           0        2.919508   -0.087253    0.806489
     23          6           0        2.324141   -3.539125    2.105729
     24          8           0        1.096734   -4.139024    2.109041
     25          1           0        0.995739   -4.685066    1.319511
     26          1           0        5.244830   -3.316852    0.400499
 ---------------------------------------------------------------------
                    Distance matrix (angstroms):
                    1          2          3          4          5
     1  C    0.000000
     2  H    1.084530   0.000000
     3  C    2.440331   3.407904   0.000000
     4  C    1.415740   2.165270   2.816892   0.000000
     5  H    2.165332   2.490186   3.902446   1.085619   0.000000
     6  C    2.253295   2.513034   3.546151   2.840985   3.250114
     7  C    1.415416   2.163784   1.388344   2.435319   3.417560
     8  C    2.439044   3.406649   2.471270   1.384217   2.137266
     9  C    4.318415   4.718523   4.785019   4.595818   4.970664
    10  H    5.189937   5.688926   5.375149   5.277762   5.635041
    11  C    3.834994   4.693504   1.509767   4.326175   5.411739
    12  H    4.509793   5.371827   2.175970   4.831207   5.895009
    13  H    4.451038   5.357554   2.171927   4.843549   5.911241
    14  H    4.047677   4.716159   2.156243   4.840710   5.906081
    15  C    3.835428   4.697285   3.833714   2.534574   2.745147
    16  H    4.431196   5.344252   4.182930   3.232902   3.473084
    17  H    4.503025   5.373457   4.149667   3.279735   3.545583
    18  H    4.058677   4.731899   4.622420   2.646576   2.401062
    19  C    4.636966   4.779356   5.332941   5.243483   5.600765
    20  H    5.675882   5.759457   6.283640   6.323367   6.664525
    21  S    3.541199   3.385061   4.758390   4.464683   4.805004
    22  N    3.079288   3.608107   3.744423   3.213220   3.628141
    23  C    2.783928   3.857188   1.410451   2.398511   3.386744
    24  O    4.148058   5.221888   2.427708   3.616692   4.488632
    25  H    4.595658   5.657301   2.458722   4.315844   5.269784
    26  H    2.166513   2.489624   2.142050   3.418487   4.313208
                    6          7          8          9         10
     6  C    0.000000
     7  C    2.794016   0.000000
     8  C    3.580217   2.818742   0.000000
     9  C    2.208001   4.514535   4.859427   0.000000
    10  H    3.204837   5.330120   5.319356   1.084071   0.000000
    11  C    4.663805   2.532187   3.844821   5.536421   6.018661
    12  H    5.622821   3.280655   4.186659   6.551817   6.986834
    13  H    4.808678   3.243151   4.226878   5.223699   5.538851
    14  H    4.819459   2.635295   4.625268   5.771790   6.358257
    15  C    4.715305   4.323389   1.505470   5.660702   5.907337
    16  H    4.842389   4.811844   2.150219   5.344260   5.395837
    17  H    5.654516   4.812385   2.159634   6.641032   6.868321
    18  H    4.897941   4.847675   2.154161   5.941781   6.226105
    19  C    2.453363   4.787599   5.747714   1.362762   2.173835
    20  H    3.518959   5.754340   6.812069   2.203483   2.655398
    21  S    1.769238   3.820034   5.293425   2.550775   3.609709
    22  N    1.279788   3.450774   3.520096   1.389244   2.139237
    23  C    3.846205   2.400926   1.412178   4.914507   5.334221
    24  O    4.997739   3.667931   2.354344   5.662386   5.855786
    25  H    5.364444   3.831316   3.175187   5.904090   6.076460
    26  H    3.181973   1.085880   3.904534   4.841980   5.726383
                   11         12         13         14         15
    11  C    0.000000
    12  H    1.098453   0.000000
    13  H    1.098765   1.774318   0.000000
    14  H    1.092179   1.762826   1.760010   0.000000
    15  C    5.044841   5.219386   5.285998   5.943248   0.000000
    16  H    5.252433   5.489893   5.265077   6.207770   1.095255
    17  H    5.187717   5.128924   5.486732   6.137113   1.095105
    18  H    5.949023   6.170079   6.246541   6.771905   1.092673
    19  C    5.989347   7.065630   5.762671   5.978771   6.723989
    20  H    6.798940   7.888765   6.490988   6.707266   7.765575
    21  S    5.569664   6.614346   5.667089   5.404243   6.481660
    22  N    4.765994   5.710539   4.653747   5.121560   4.396811
    23  C    2.530943   2.848918   2.882267   3.437193   2.518812
    24  O    2.894185   2.875295   2.937367   3.968198   2.746845
    25  H    2.376872   2.240367   2.262630   3.465327   3.709678
    26  H    2.737119   3.529831   3.467689   2.382879   5.409203
                   16         17         18         19         20
    16  H    0.000000
    17  H    1.757066   0.000000
    18  H    1.774518   1.778247   0.000000
    19  C    6.540494   7.695031   6.958939   0.000000
    20  H    7.526537   8.736088   8.002816   1.081289   0.000000
    21  S    6.588505   7.403105   6.640949   1.749511   2.498946
    22  N    4.236525   5.382792   4.668616   2.331319   3.371302
    23  C    2.839519   2.808564   3.430617   5.754322   6.760290
    24  O    2.753104   2.684129   3.826909   6.641286   7.588383
    25  H    3.661231   3.610063   4.786063   6.804735   7.686355
    26  H    5.879030   5.875597   5.914251   4.829475   5.684088
                   21         22         23         24         25
    21  S    0.000000
    22  N    2.581245   0.000000
    23  C    5.386899   3.736028   0.000000
    24  O    6.525621   4.629902   1.366169   0.000000
    25  H    6.734173   5.010386   1.922492   0.965257   0.000000
    26  H    3.697483   4.000283   3.389342   4.560897   4.557562
                   26
    26  H    0.000000
 Symmetry turned off by external request.
 Stoichiometry    C11H12NOS(2)
 Framework group  C1[X(C11H12NOS)]
 Deg. of freedom    72
 Full point group                 C1      NOp   1
 Rotational constants (GHZ):           1.0105024           0.3892334           0.3611819
 Standard basis: 6-31G(d,p) (6D, 7F)
   274 basis functions,   500 primitive gaussians,   274 cartesian basis functions
    55 alpha electrons       54 beta electrons
       nuclear repulsion energy       947.3839708763 Hartrees.
 NAtoms=   26 NActive=   26 NUniq=   26 SFac= 1.00D+00 NAtFMM=   60 NAOKFM=F Big=F
 Integral buffers will be    131072 words long.
 Raffenetti 2 integral format.
 Two-electron integral symmetry is turned off.
 Nuclear repulsion after empirical dispersion term =      947.3609501305 Hartrees.
 One-electron integrals computed using PRISM.
 NBasis=   274 RedAO= T EigKep=  4.38D-04  NBF=   274
 NBsUse=   274 1.00D-06 EigRej= -1.00D+00 NBFU=   274
 Initial guess from the checkpoint file:  "/scratch/jcuzick/job_48780924/Gau-1202240.chk"
 B after Tr=     0.000002   -0.000013    0.000601
         Rot=    1.000000    0.000104   -0.000146    0.000120 Ang=   0.02 deg.
 Initial guess <Sx>= 0.0000 <Sy>= 0.0000 <Sz>= 0.5000 <S**2>= 0.7729 S= 0.5114
 Requested convergence on RMS density matrix=1.00D-08 within 128 cycles.
 Requested convergence on MAX density matrix=1.00D-06.
 Requested convergence on             energy=1.00D-06.
 No special actions if energy rises.
 SCF Done:  E(UB3LYP) =  -954.502517641     A.U. after   10 cycles
            NFock= 10  Conv=0.89D-08     -V/T= 2.0069
 <Sx>= 0.0000 <Sy>= 0.0000 <Sz>= 0.5000 <S**2>= 0.7729 S= 0.5114
 <L.S>= 0.000000000000E+00
 Annihilation of the first spin contaminant:
 S**2 before annihilation     0.7729,   after     0.7504
 Calling FoFJK, ICntrl=      2127 FMM=F ISym2X=0 I1Cent= 0 IOpClX= 1 NMat=1 NMatS=1 NMatT=0.
 -------------------------------------------------------------------
 Center     Atomic                   Forces (Hartrees/Bohr)
 Number     Number              X              Y              Z
 -------------------------------------------------------------------
      1        6          -0.000006772   -0.000041365    0.000025839
      2        1          -0.000006724   -0.000000327   -0.000005902
      3        6          -0.000012896   -0.000002215    0.000003440
      4        6           0.000026358   -0.000003526   -0.000018085
      5        1          -0.000000803    0.000000965   -0.000001271
      6        6          -0.000007416    0.000015720   -0.000013162
      7        6           0.000009109    0.000021498    0.000023783
      8        6          -0.000009325   -0.000006067   -0.000006201
      9        6          -0.000000817    0.000002549   -0.000000092
     10        1          -0.000000126    0.000000762   -0.000000320
     11        6          -0.000000758   -0.000000149   -0.000000067
     12        1          -0.000000617    0.000000268    0.000000045
     13        1           0.000001056    0.000000554   -0.000000742
     14        1           0.000000547   -0.000000666    0.000000719
     15        6          -0.000001039   -0.000000235   -0.000000329
     16        1          -0.000000219   -0.000000337   -0.000000238
     17        1           0.000000163    0.000000141    0.000000219
     18        1          -0.000000502    0.000000356   -0.000000504
     19        6           0.000000389    0.000002993   -0.000003031
     20        1          -0.000000375    0.000000551    0.000000136
     21       16           0.000004829    0.000005220   -0.000001434
     22        7          -0.000004327   -0.000002279   -0.000003661
     23        6           0.000003755    0.000001625    0.000000925
     24        8           0.000007487    0.000002769    0.000000692
     25        1          -0.000000436    0.000000359   -0.000001155
     26        1          -0.000000541    0.000000834    0.000000394
 -------------------------------------------------------------------
 Cartesian Forces:  Max     0.000041365 RMS     0.000008534

 GradGradGradGradGradGradGradGradGradGradGradGradGradGradGradGradGradGrad
 Berny optimization.
 FormGI is forming the generalized inverse of G from B-inverse, IUseBI=4.
 Internal  Forces:  Max     0.000034595 RMS     0.000005107
 Search for a saddle point.
 Step number  10 out of a maximum of  142
 All quantities printed in internal units (Hartrees-Bohrs-Radians)
 Swapping is turned off.
 Update second derivatives using D2CorX and points    2    3    4    5    6
                                                      7    8    9   10
 ITU=  0  0  0  0  0  0  0  0  0  0
     Eigenvalues ---   -0.02619   0.00077   0.00137   0.00172   0.00294
     Eigenvalues ---    0.00535   0.00889   0.01341   0.01470   0.01519
     Eigenvalues ---    0.01609   0.01707   0.01843   0.01988   0.02552
     Eigenvalues ---    0.02756   0.03174   0.03921   0.03932   0.05144
     Eigenvalues ---    0.05151   0.05551   0.05750   0.05889   0.05910
     Eigenvalues ---    0.06048   0.06841   0.09198   0.11185   0.11826
     Eigenvalues ---    0.11984   0.12030   0.12271   0.12526   0.14436
     Eigenvalues ---    0.14651   0.14713   0.15131   0.15344   0.16906
     Eigenvalues ---    0.18515   0.19006   0.19112   0.19756   0.21070
     Eigenvalues ---    0.22075   0.22863   0.27345   0.31127   0.31649
     Eigenvalues ---    0.32622   0.33286   0.33505   0.33586   0.34195
     Eigenvalues ---    0.34605   0.34721   0.34921   0.35690   0.36006
     Eigenvalues ---    0.36536   0.36640   0.37363   0.39909   0.41048
     Eigenvalues ---    0.41223   0.45147   0.46330   0.48343   0.51942
     Eigenvalues ---    0.53182   0.57958
 Eigenvectors required to have negative eigenvalues:
                          R3        D14       D1        D2        D13
   1                   -0.89955  -0.15863   0.15698   0.14550  -0.14383
                          D15       D6        D5        D16       R4
   1                    0.10455  -0.10324  -0.09175   0.08975   0.08436
 RFO step:  Lambda0=5.282152263D-08 Lambda=-1.43520772D-07.
 Linear search not attempted -- option 19 set.
 Iteration  1 RMS(Cart)=  0.00270776 RMS(Int)=  0.00000447
 Iteration  2 RMS(Cart)=  0.00000690 RMS(Int)=  0.00000023
 Iteration  3 RMS(Cart)=  0.00000000 RMS(Int)=  0.00000023
 Variable       Old X    -DE/DX   Delta X   Delta X   Delta X     New X
                                 (Linear)    (Quad)   (Total)
    R1        2.04946  -0.00001   0.00000  -0.00000  -0.00000   2.04946
    R2        2.67536  -0.00003   0.00000   0.00005   0.00005   2.67541
    R3        4.25811   0.00003   0.00000  -0.00087  -0.00087   4.25724
    R4        2.67475  -0.00003   0.00000   0.00001   0.00001   2.67476
    R5        2.62359   0.00001   0.00000  -0.00001  -0.00001   2.62358
    R6        2.85305   0.00000   0.00000  -0.00000  -0.00000   2.85304
    R7        2.66537  -0.00001   0.00000  -0.00000  -0.00000   2.66536
    R8        2.05152  -0.00000   0.00000   0.00000   0.00000   2.05152
    R9        2.61579   0.00001   0.00000  -0.00001  -0.00001   2.61578
   R10        3.34337   0.00001   0.00000   0.00001   0.00001   3.34338
   R11        2.41845   0.00001   0.00000   0.00003   0.00003   2.41848
   R12        2.05202  -0.00000   0.00000   0.00000   0.00000   2.05202
   R13        2.84493   0.00000   0.00000   0.00000   0.00000   2.84493
   R14        2.66863  -0.00001   0.00000   0.00000   0.00000   2.66863
   R15        2.04860   0.00000   0.00000   0.00000   0.00000   2.04860
   R16        2.57525   0.00000   0.00000   0.00002   0.00002   2.57526
   R17        2.62529   0.00000   0.00000  -0.00002  -0.00002   2.62528
   R18        2.07577  -0.00000   0.00000  -0.00000  -0.00000   2.07577
   R19        2.07637  -0.00000   0.00000  -0.00000  -0.00000   2.07636
   R20        2.06392  -0.00000   0.00000   0.00000   0.00000   2.06392
   R21        2.06973  -0.00000   0.00000  -0.00000  -0.00000   2.06973
   R22        2.06945  -0.00000   0.00000   0.00000   0.00000   2.06945
   R23        2.06485  -0.00000   0.00000   0.00000   0.00000   2.06485
   R24        2.04334   0.00000   0.00000   0.00000   0.00000   2.04334
   R25        3.30610   0.00000   0.00000  -0.00002  -0.00002   3.30608
   R26        2.58169  -0.00001   0.00000  -0.00001  -0.00001   2.58168
   R27        1.82407   0.00000   0.00000   0.00000   0.00000   1.82407
    A1        2.08407  -0.00000   0.00000  -0.00003  -0.00003   2.08404
    A2        1.58344  -0.00000   0.00000  -0.00018  -0.00018   1.58326
    A3        2.08214  -0.00000   0.00000  -0.00008  -0.00008   2.08205
    A4        1.72652  -0.00000   0.00000   0.00015   0.00015   1.72667
    A5        2.07127   0.00000   0.00000  -0.00004  -0.00004   2.07122
    A6        1.68483   0.00000   0.00000   0.00052   0.00052   1.68534
    A7        2.12469   0.00000   0.00000   0.00000   0.00000   2.12469
    A8        2.06208  -0.00000   0.00000   0.00001   0.00001   2.06208
    A9        2.09642   0.00000   0.00000  -0.00001  -0.00001   2.09641
   A10        2.08272  -0.00000   0.00000  -0.00002  -0.00002   2.08270
   A11        2.11481   0.00000   0.00000   0.00001   0.00001   2.11481
   A12        2.08312  -0.00000   0.00000   0.00001   0.00001   2.08312
   A13        2.14526   0.00000   0.00000   0.00077   0.00076   2.14603
   A14        2.07114   0.00000   0.00000   0.00019   0.00019   2.07133
   A15        2.00249  -0.00001   0.00000  -0.00001  -0.00001   2.00248
   A16        2.11189   0.00000   0.00000   0.00001   0.00001   2.11190
   A17        2.08476  -0.00000   0.00000  -0.00002  -0.00002   2.08474
   A18        2.08453  -0.00000   0.00000   0.00001   0.00001   2.08454
   A19        2.13866   0.00000   0.00000   0.00001   0.00001   2.13866
   A20        2.06156  -0.00000   0.00000   0.00000   0.00000   2.06156
   A21        2.08295   0.00000   0.00000  -0.00001  -0.00001   2.08295
   A22        2.18104  -0.00000   0.00000  -0.00002  -0.00002   2.18102
   A23        2.08106  -0.00000   0.00000   0.00000   0.00000   2.08106
   A24        2.02108   0.00000   0.00000   0.00002   0.00002   2.02109
   A25        1.95684   0.00000   0.00000  -0.00000  -0.00000   1.95683
   A26        1.95078   0.00000   0.00000  -0.00001  -0.00001   1.95077
   A27        1.93578  -0.00000   0.00000   0.00000   0.00000   1.93578
   A28        1.87990   0.00000   0.00000   0.00001   0.00001   1.87991
   A29        1.87037   0.00000   0.00000  -0.00001  -0.00001   1.87037
   A30        1.86566  -0.00000   0.00000   0.00001   0.00001   1.86567
   A31        1.92941   0.00000   0.00000   0.00001   0.00001   1.92942
   A32        1.94274   0.00000   0.00000  -0.00001  -0.00001   1.94273
   A33        1.93765  -0.00000   0.00000   0.00000   0.00000   1.93765
   A34        1.86188   0.00000   0.00000  -0.00001  -0.00001   1.86187
   A35        1.89189  -0.00000   0.00000   0.00002   0.00002   1.89191
   A36        1.89792   0.00000   0.00000  -0.00001  -0.00001   1.89790
   A37        2.24034  -0.00000   0.00000  -0.00001  -0.00001   2.24033
   A38        1.91043  -0.00000   0.00000  -0.00000  -0.00001   1.91043
   A39        2.13237   0.00000   0.00000   0.00001   0.00001   2.13238
   A40        1.54301   0.00000   0.00000   0.00001   0.00001   1.54302
   A41        1.94731   0.00000   0.00000  -0.00001  -0.00001   1.94730
   A42        2.13303  -0.00000   0.00000  -0.00001  -0.00001   2.13302
   A43        2.12801   0.00000   0.00000   0.00001   0.00001   2.12801
   A44        2.02193   0.00000   0.00000  -0.00000  -0.00000   2.02193
   A45        1.91816   0.00000   0.00000   0.00000   0.00000   1.91816
    D1        0.23762  -0.00000   0.00000   0.00044   0.00044   0.23806
    D2       -2.98104  -0.00000   0.00000   0.00040   0.00040  -2.98064
    D3       -1.43654   0.00000   0.00000   0.00057   0.00057  -1.43598
    D4        1.62799   0.00000   0.00000   0.00053   0.00053   1.62852
    D5        3.05696   0.00000   0.00000  -0.00011  -0.00011   3.05685
    D6       -0.16169  -0.00000   0.00000  -0.00015  -0.00015  -0.16184
    D7        0.75508  -0.00000   0.00000  -0.00587  -0.00587   0.74921
    D8       -2.78422  -0.00000   0.00000  -0.00305  -0.00305  -2.78727
    D9        2.84840  -0.00001   0.00000  -0.00592  -0.00592   2.84248
   D10       -0.69090  -0.00000   0.00000  -0.00310  -0.00310  -0.69400
   D11       -1.33244  -0.00000   0.00000  -0.00581  -0.00581  -1.33824
   D12        1.41145  -0.00000   0.00000  -0.00299  -0.00299   1.40846
   D13        2.97806   0.00000   0.00000  -0.00036  -0.00036   2.97770
   D14       -0.23205   0.00000   0.00000  -0.00041  -0.00041  -0.23246
   D15        0.15836   0.00000   0.00000   0.00018   0.00018   0.15854
   D16       -3.05175  -0.00000   0.00000   0.00013   0.00013  -3.05162
   D17       -1.65539   0.00000   0.00000  -0.00028  -0.00028  -1.65567
   D18        1.41769  -0.00000   0.00000  -0.00033  -0.00033   1.41735
   D19        3.07925  -0.00000   0.00000  -0.00007  -0.00007   3.07918
   D20        0.00617   0.00000   0.00000  -0.00002  -0.00002   0.00615
   D21       -0.06047  -0.00000   0.00000  -0.00010  -0.00010  -0.06057
   D22       -3.13355   0.00000   0.00000  -0.00005  -0.00005  -3.13360
   D23        2.13803   0.00000   0.00000   0.00057   0.00057   2.13860
   D24       -2.03227   0.00000   0.00000   0.00057   0.00057  -2.03170
   D25        0.04788   0.00000   0.00000   0.00058   0.00058   0.04845
   D26       -1.00547   0.00000   0.00000   0.00059   0.00059  -1.00487
   D27        1.10742   0.00000   0.00000   0.00059   0.00059   1.10801
   D28       -3.09562   0.00000   0.00000   0.00060   0.00060  -3.09502
   D29       -0.03846   0.00000   0.00000  -0.00002  -0.00002  -0.03848
   D30        3.12686  -0.00000   0.00000   0.00003   0.00003   3.12689
   D31        3.10497   0.00000   0.00000  -0.00005  -0.00005   3.10492
   D32       -0.01289   0.00000   0.00000   0.00000   0.00000  -0.01289
   D33       -3.06974   0.00000   0.00000  -0.00001  -0.00001  -3.06975
   D34        0.06650   0.00000   0.00000   0.00004   0.00004   0.06654
   D35       -0.00523  -0.00000   0.00000  -0.00005  -0.00005  -0.00527
   D36        3.13101  -0.00000   0.00000   0.00000   0.00000   3.13101
   D37        2.78139   0.00000   0.00000   0.00262   0.00262   2.78400
   D38        0.02328   0.00000   0.00000  -0.00014  -0.00014   0.02315
   D39       -2.80686  -0.00001   0.00000  -0.00258  -0.00258  -2.80944
   D40       -0.03137  -0.00000   0.00000   0.00018   0.00018  -0.03119
   D41        2.04745   0.00000   0.00000   0.00045   0.00045   2.04791
   D42       -2.16975   0.00000   0.00000   0.00044   0.00044  -2.16931
   D43       -0.05283   0.00000   0.00000   0.00042   0.00042  -0.05241
   D44       -1.08872   0.00000   0.00000   0.00041   0.00041  -1.08832
   D45        0.97726   0.00000   0.00000   0.00039   0.00039   0.97765
   D46        3.09418   0.00000   0.00000   0.00037   0.00037   3.09455
   D47        0.03554  -0.00000   0.00000   0.00005   0.00005   0.03559
   D48       -3.12844   0.00000   0.00000   0.00000   0.00000  -3.12844
   D49       -3.11123  -0.00000   0.00000   0.00010   0.00010  -3.11114
   D50        0.00798  -0.00000   0.00000   0.00005   0.00005   0.00803
   D51        0.00548   0.00000   0.00000  -0.00006  -0.00006   0.00543
   D52        3.13643  -0.00000   0.00000   0.00002   0.00002   3.13645
   D53       -3.13855   0.00000   0.00000  -0.00003  -0.00003  -3.13858
   D54       -0.00761  -0.00000   0.00000   0.00005   0.00005  -0.00756
   D55       -3.11839   0.00000   0.00000  -0.00013  -0.00013  -3.11852
   D56        0.02550   0.00000   0.00000  -0.00015  -0.00015   0.02535
   D57       -0.00772  -0.00000   0.00000   0.00004   0.00004  -0.00768
   D58        3.12401  -0.00000   0.00000   0.00011   0.00011   3.12412
   D59       -0.06642  -0.00000   0.00000  -0.00041  -0.00041  -0.06682
   D60        3.09749  -0.00000   0.00000  -0.00036  -0.00036   3.09713
         Item               Value     Threshold  Converged?
 Maximum Force            0.000035     0.000450     YES
 RMS     Force            0.000005     0.000300     YES
 Maximum Displacement     0.014306     0.001800     NO 
 RMS     Displacement     0.002707     0.001200     NO 
 Predicted change in Energy=-4.534932D-08
 GradGradGradGradGradGradGradGradGradGradGradGradGradGradGradGradGradGrad

                          Input orientation:                          
 ---------------------------------------------------------------------
 Center     Atomic      Atomic             Coordinates (Angstroms)
 Number     Number       Type             X           Y           Z
 ---------------------------------------------------------------------
      1          6           0        4.742917   -2.163220    2.163096
      2          1           0        5.746522   -1.770298    2.283887
      3          6           0        3.279775   -3.803632    1.103137
      4          6           0        3.807738   -2.016948    3.215918
      5          1           0        4.024983   -1.330780    4.028660
      6          6           0        4.160315   -0.372495    0.926508
      7          6           0        4.495574   -3.136217    1.165338
      8          6           0        2.584095   -2.663168    3.182204
      9          6           0        2.689739    0.738427   -0.289442
     10          1           0        1.679973    1.073456   -0.497627
     11          6           0        2.968674   -4.786022   -0.000275
     12          1           0        2.714710   -5.780556    0.390880
     13          1           0        2.129019   -4.447249   -0.622767
     14          1           0        3.826477   -4.910430   -0.664771
     15          6           0        1.531274   -2.459115    4.238791
     16          1           0        0.628213   -2.019669    3.801814
     17          1           0        1.230957   -3.410517    4.690350
     18          1           0        1.891361   -1.794270    5.027621
     19          6           0        3.788376    1.064507   -1.026879
     20          1           0        3.844360    1.690363   -1.906854
     21         16           0        5.204461    0.312737   -0.326663
     22          7           0        2.918352   -0.089620    0.802368
     23          6           0        2.323953   -3.540082    2.106288
     24          8           0        1.096797   -4.140477    2.110564
     25          1           0        0.995503   -4.686764    1.321241
     26          1           0        5.243766   -3.317727    0.399570
 ---------------------------------------------------------------------
                    Distance matrix (angstroms):
                    1          2          3          4          5
     1  C    0.000000
     2  H    1.084528   0.000000
     3  C    2.440338   3.407853   0.000000
     4  C    1.415765   2.165271   2.816883   0.000000
     5  H    2.165344   2.490202   3.902437   1.085620   0.000000
     6  C    2.252836   2.512445   3.546724   2.840762   3.249611
     7  C    1.415423   2.163737   1.388337   2.435315   3.417553
     8  C    2.439066   3.406632   2.471265   1.384211   2.137266
     9  C    4.318569   4.718012   4.787245   4.596690   4.970966
    10  H    5.190101   5.688636   5.376597   5.279052   5.636196
    11  C    3.834997   4.693445   1.509765   4.326164   5.411728
    12  H    4.509933   5.371920   2.175968   4.831179   5.894978
    13  H    4.450874   5.357334   2.171917   4.843548   5.911246
    14  H    4.047698   4.716099   2.156243   4.840696   5.906064
    15  C    3.835455   4.697280   3.833707   2.534575   2.745156
    16  H    4.431342   5.344471   4.182841   3.233058   3.473338
    17  H    4.502957   5.373240   4.149734   3.279601   3.545380
    18  H    4.058695   4.731904   4.622424   2.646574   2.401060
    19  C    4.637382   4.778245   5.338017   5.243764   5.599273
    20  H    5.676442   5.758185   6.289895   6.323629   6.662601
    21  S    3.541508   3.383464   4.763742   4.464094   4.802203
    22  N    3.079032   3.608063   3.743658   3.214159   3.629610
    23  C    2.783948   3.857157   1.410449   2.398507   3.386744
    24  O    4.148071   5.221851   2.427708   3.616681   4.488626
    25  H    4.595662   5.657265   2.458738   4.315830   5.269772
    26  H    2.166508   2.489568   2.142048   3.418481   4.313198
                    6          7          8          9         10
     6  C    0.000000
     7  C    2.794208   0.000000
     8  C    3.580477   2.818737   0.000000
     9  C    2.208002   4.515561   4.861516   0.000000
    10  H    3.204845   5.330517   5.321743   1.084073   0.000000
    11  C    4.664564   2.532180   3.844812   5.539040   6.020099
    12  H    5.623504   3.280821   4.186485   6.554433   6.988390
    13  H    4.809370   3.242947   4.227037   5.226543   5.540351
    14  H    4.820423   2.635303   4.625248   5.774308   6.359427
    15  C    4.715618   4.323385   1.505472   5.663145   5.910569
    16  H    4.843172   4.811877   2.150228   5.347463   5.399890
    17  H    5.654840   4.812346   2.159633   6.643802   6.871880
    18  H    4.897828   4.847677   2.154165   5.943326   6.228716
    19  C    2.453372   4.790828   5.749977   1.362771   2.173833
    20  H    3.518970   5.758327   6.814691   2.203487   2.655385
    21  S    1.769243   3.824117   5.294759   2.550769   3.609701
    22  N    1.279805   3.449802   3.521150   1.389236   2.139233
    23  C    3.846779   2.400923   1.412178   4.917210   5.336648
    24  O    4.998482   3.667925   2.354338   5.665792   5.858998
    25  H    5.365144   3.831319   3.175177   5.907406   6.079220
    26  H    3.182125   1.085881   3.904529   4.842538   5.726087
                   11         12         13         14         15
    11  C    0.000000
    12  H    1.098452   0.000000
    13  H    1.098765   1.774322   0.000000
    14  H    1.092180   1.762822   1.760017   0.000000
    15  C    5.044829   5.219091   5.286277   5.943216   0.000000
    16  H    5.252270   5.489281   5.265214   6.207718   1.095253
    17  H    5.187835   5.128748   5.487307   6.137082   1.095108
    18  H    5.949027   6.169907   6.246732   6.771887   1.092673
    19  C    5.996209   7.072318   5.770289   5.986022   6.725898
    20  H    6.807749   7.897488   6.500890   6.716663   7.767721
    21  S    5.576972   6.621325   5.674812   5.412452   6.482193
    22  N    4.764763   5.709425   4.652203   5.120293   4.398578
    23  C    2.530936   2.848691   2.882480   3.437179   2.518809
    24  O    2.894182   2.874858   2.937803   3.968181   2.746835
    25  H    2.376902   2.240006   2.263049   3.465355   3.709659
    26  H    2.737117   3.530117   3.467368   2.382905   5.409199
                   16         17         18         19         20
    16  H    0.000000
    17  H    1.757058   0.000000
    18  H    1.774528   1.778240   0.000000
    19  C    6.543321   7.697593   6.959040   0.000000
    20  H    7.529730   8.739105   8.002738   1.081289   0.000000
    21  S    6.589877   7.404172   6.639613   1.749502   2.498946
    22  N    4.238691   5.384427   4.670471   2.331330   3.371308
    23  C    2.839365   2.808701   3.430624   5.758777   6.765685
    24  O    2.752767   2.684425   3.826911   6.646804   7.595225
    25  H    3.660811   3.610422   4.786057   6.811089   7.694436
    26  H    5.879077   5.875546   5.914254   4.832897   5.688488
                   21         22         23         24         25
    21  S    0.000000
    22  N    2.581259   0.000000
    23  C    5.390806   3.736201   0.000000
    24  O    6.530244   4.630214   1.366164   0.000000
    25  H    6.739876   5.010021   1.922488   0.965257   0.000000
    26  H    3.702597   3.998809   3.389342   4.560895   4.557574
                   26
    26  H    0.000000
 Symmetry turned off by external request.
 Stoichiometry    C11H12NOS(2)
 Framework group  C1[X(C11H12NOS)]
 Deg. of freedom    72
 Full point group                 C1      NOp   1
 Rotational constants (GHZ):           1.0110811           0.3888269           0.3608723
 Standard basis: 6-31G(d,p) (6D, 7F)
   274 basis functions,   500 primitive gaussians,   274 cartesian basis functions
    55 alpha electrons       54 beta electrons
       nuclear repulsion energy       947.2752397771 Hartrees.
 NAtoms=   26 NActive=   26 NUniq=   26 SFac= 1.00D+00 NAtFMM=   60 NAOKFM=F Big=F
 Integral buffers will be    131072 words long.
 Raffenetti 2 integral format.
 Two-electron integral symmetry is turned off.
 Nuclear repulsion after empirical dispersion term =      947.2522283745 Hartrees.
 One-electron integrals computed using PRISM.
 NBasis=   274 RedAO= T EigKep=  4.38D-04  NBF=   274
 NBsUse=   274 1.00D-06 EigRej= -1.00D+00 NBFU=   274
 Initial guess from the checkpoint file:  "/scratch/jcuzick/job_48780924/Gau-1202240.chk"
 B after Tr=    -0.000006    0.000047   -0.000566
         Rot=    1.000000   -0.000099    0.000131   -0.000108 Ang=  -0.02 deg.
 Initial guess <Sx>= 0.0000 <Sy>= 0.0000 <Sz>= 0.5000 <S**2>= 0.7729 S= 0.5114
 Requested convergence on RMS density matrix=1.00D-08 within 128 cycles.
 Requested convergence on MAX density matrix=1.00D-06.
 Requested convergence on             energy=1.00D-06.
 No special actions if energy rises.
 SCF Done:  E(UB3LYP) =  -954.502517684     A.U. after   11 cycles
            NFock= 11  Conv=0.92D-08     -V/T= 2.0069
 <Sx>= 0.0000 <Sy>= 0.0000 <Sz>= 0.5000 <S**2>= 0.7729 S= 0.5114
 <L.S>= 0.000000000000E+00
 Annihilation of the first spin contaminant:
 S**2 before annihilation     0.7729,   after     0.7504
 Calling FoFJK, ICntrl=      2127 FMM=F ISym2X=0 I1Cent= 0 IOpClX= 1 NMat=1 NMatS=1 NMatT=0.
 -------------------------------------------------------------------
 Center     Atomic                   Forces (Hartrees/Bohr)
 Number     Number              X              Y              Z
 -------------------------------------------------------------------
      1        6          -0.000001082   -0.000007609    0.000004241
      2        1          -0.000001278   -0.000000134   -0.000000208
      3        6          -0.000002470   -0.000000453    0.000000777
      4        6           0.000004334   -0.000000761   -0.000003571
      5        1          -0.000000354    0.000000214   -0.000000128
      6        6          -0.000000614    0.000002657   -0.000001099
      7        6           0.000002063    0.000004497    0.000004099
      8        6          -0.000001824   -0.000001033   -0.000001000
      9        6           0.000000131    0.000000329   -0.000000574
     10        1           0.000000174    0.000000173   -0.000000192
     11        6           0.000000039    0.000000006    0.000000031
     12        1          -0.000000035    0.000000051   -0.000000031
     13        1           0.000000351    0.000000074   -0.000000211
     14        1           0.000000217   -0.000000110    0.000000196
     15        6          -0.000000460   -0.000000026   -0.000000192
     16        1          -0.000000232   -0.000000054   -0.000000226
     17        1          -0.000000248    0.000000002   -0.000000119
     18        1          -0.000000358    0.000000048   -0.000000171
     19        6          -0.000000126    0.000000546   -0.000000333
     20        1           0.000000224    0.000000165    0.000000106
     21       16           0.000000508    0.000000207   -0.000000586
     22        7          -0.000000879    0.000000339   -0.000000468
     23        6           0.000000791    0.000000109   -0.000000225
     24        8           0.000001248    0.000000514   -0.000000033
     25        1          -0.000000074    0.000000065   -0.000000351
     26        1          -0.000000046    0.000000182    0.000000268
 -------------------------------------------------------------------
 Cartesian Forces:  Max     0.000007609 RMS     0.000001518

 GradGradGradGradGradGradGradGradGradGradGradGradGradGradGradGradGradGrad
 Berny optimization.
 FormGI is forming the generalized inverse of G from B-inverse, IUseBI=4.
 Internal  Forces:  Max     0.000005864 RMS     0.000000915
 Search for a saddle point.
 Step number  11 out of a maximum of  142
 All quantities printed in internal units (Hartrees-Bohrs-Radians)
 Swapping is turned off.
 Update second derivatives using D2CorX and points    2    3    4    5    6
                                                      7    8    9   10   11
 ITU=  0  0  0  0  0  0  0  0  0  0  0
     Eigenvalues ---   -0.01899   0.00055   0.00107   0.00153   0.00191
     Eigenvalues ---    0.00535   0.00887   0.01341   0.01468   0.01519
     Eigenvalues ---    0.01608   0.01706   0.01838   0.01988   0.02552
     Eigenvalues ---    0.02756   0.03156   0.03896   0.03924   0.05140
     Eigenvalues ---    0.05149   0.05551   0.05750   0.05889   0.05910
     Eigenvalues ---    0.06048   0.06841   0.09198   0.11185   0.11826
     Eigenvalues ---    0.11983   0.12029   0.12271   0.12526   0.14436
     Eigenvalues ---    0.14651   0.14713   0.15131   0.15344   0.16906
     Eigenvalues ---    0.18515   0.19006   0.19112   0.19755   0.21070
     Eigenvalues ---    0.22081   0.22863   0.27345   0.31127   0.31649
     Eigenvalues ---    0.32622   0.33286   0.33505   0.33585   0.34195
     Eigenvalues ---    0.34604   0.34721   0.34919   0.35689   0.36006
     Eigenvalues ---    0.36537   0.36636   0.37363   0.39904   0.41051
     Eigenvalues ---    0.41233   0.45147   0.46330   0.48352   0.51942
     Eigenvalues ---    0.53182   0.57963
 Eigenvectors required to have negative eigenvalues:
                          R3        D14       D1        D2        D13
   1                   -0.89498  -0.16264   0.16037   0.14638  -0.14477
                          D15       D6        D5        D16       A6
   1                    0.11296  -0.11198  -0.09799   0.09508   0.07943
 RFO step:  Lambda0=2.097567049D-09 Lambda= 0.00000000D+00.
 Linear search not attempted -- option 19 set.
 Iteration  1 RMS(Cart)=  0.00024719 RMS(Int)=  0.00000002
 Iteration  2 RMS(Cart)=  0.00000003 RMS(Int)=  0.00000000
 Variable       Old X    -DE/DX   Delta X   Delta X   Delta X     New X
                                 (Linear)    (Quad)   (Total)
    R1        2.04946  -0.00000   0.00000  -0.00000  -0.00000   2.04946
    R2        2.67541  -0.00000   0.00000   0.00001   0.00001   2.67541
    R3        4.25724   0.00001   0.00000  -0.00026  -0.00026   4.25698
    R4        2.67476  -0.00001   0.00000   0.00001   0.00001   2.67477
    R5        2.62358   0.00000   0.00000  -0.00000  -0.00000   2.62358
    R6        2.85304  -0.00000   0.00000  -0.00000  -0.00000   2.85304
    R7        2.66536  -0.00000   0.00000  -0.00000  -0.00000   2.66536
    R8        2.05152  -0.00000   0.00000  -0.00000  -0.00000   2.05152
    R9        2.61578   0.00000   0.00000  -0.00000  -0.00000   2.61578
   R10        3.34338   0.00000   0.00000   0.00001   0.00001   3.34340
   R11        2.41848   0.00000   0.00000   0.00001   0.00001   2.41849
   R12        2.05202  -0.00000   0.00000  -0.00000  -0.00000   2.05202
   R13        2.84493   0.00000   0.00000   0.00000   0.00000   2.84493
   R14        2.66863  -0.00000   0.00000   0.00000   0.00000   2.66863
   R15        2.04860   0.00000   0.00000   0.00000   0.00000   2.04860
   R16        2.57526  -0.00000   0.00000   0.00000   0.00000   2.57526
   R17        2.62528   0.00000   0.00000  -0.00000  -0.00000   2.62527
   R18        2.07577  -0.00000   0.00000  -0.00000  -0.00000   2.07577
   R19        2.07636  -0.00000   0.00000  -0.00000  -0.00000   2.07636
   R20        2.06392  -0.00000   0.00000  -0.00000  -0.00000   2.06392
   R21        2.06973  -0.00000   0.00000  -0.00000  -0.00000   2.06973
   R22        2.06945   0.00000   0.00000   0.00000   0.00000   2.06945
   R23        2.06485  -0.00000   0.00000  -0.00000  -0.00000   2.06485
   R24        2.04334   0.00000   0.00000   0.00000   0.00000   2.04334
   R25        3.30608   0.00000   0.00000  -0.00000  -0.00000   3.30608
   R26        2.58168  -0.00000   0.00000  -0.00000  -0.00000   2.58167
   R27        1.82407   0.00000   0.00000   0.00000   0.00000   1.82407
    A1        2.08404  -0.00000   0.00000  -0.00001  -0.00001   2.08402
    A2        1.58326   0.00000   0.00000  -0.00000  -0.00000   1.58326
    A3        2.08205  -0.00000   0.00000  -0.00002  -0.00002   2.08204
    A4        1.72667  -0.00000   0.00000   0.00005   0.00005   1.72672
    A5        2.07122   0.00000   0.00000  -0.00001  -0.00001   2.07121
    A6        1.68534  -0.00000   0.00000   0.00008   0.00008   1.68542
    A7        2.12469   0.00000   0.00000  -0.00000  -0.00000   2.12469
    A8        2.06208  -0.00000   0.00000  -0.00000  -0.00000   2.06208
    A9        2.09641   0.00000   0.00000   0.00000   0.00000   2.09641
   A10        2.08270  -0.00000   0.00000  -0.00000  -0.00000   2.08270
   A11        2.11481   0.00000   0.00000   0.00000   0.00000   2.11482
   A12        2.08312  -0.00000   0.00000  -0.00000  -0.00000   2.08312
   A13        2.14603   0.00000   0.00000   0.00004   0.00004   2.14607
   A14        2.07133   0.00000   0.00000   0.00008   0.00008   2.07141
   A15        2.00248  -0.00000   0.00000  -0.00000  -0.00001   2.00248
   A16        2.11190   0.00000   0.00000   0.00000   0.00000   2.11190
   A17        2.08474  -0.00000   0.00000  -0.00000  -0.00000   2.08473
   A18        2.08454  -0.00000   0.00000  -0.00000  -0.00000   2.08454
   A19        2.13866   0.00000   0.00000   0.00000   0.00000   2.13867
   A20        2.06156  -0.00000   0.00000   0.00000   0.00000   2.06156
   A21        2.08295   0.00000   0.00000  -0.00000  -0.00000   2.08295
   A22        2.18102  -0.00000   0.00000  -0.00000  -0.00000   2.18102
   A23        2.08106   0.00000   0.00000  -0.00000  -0.00000   2.08106
   A24        2.02109   0.00000   0.00000   0.00000   0.00000   2.02110
   A25        1.95683  -0.00000   0.00000  -0.00000  -0.00000   1.95683
   A26        1.95077   0.00000   0.00000   0.00000   0.00000   1.95077
   A27        1.93578  -0.00000   0.00000  -0.00000  -0.00000   1.93578
   A28        1.87991   0.00000   0.00000   0.00000   0.00000   1.87991
   A29        1.87037  -0.00000   0.00000  -0.00000  -0.00000   1.87036
   A30        1.86567  -0.00000   0.00000   0.00000   0.00000   1.86568
   A31        1.92942   0.00000   0.00000   0.00000   0.00000   1.92942
   A32        1.94273  -0.00000   0.00000  -0.00000  -0.00000   1.94273
   A33        1.93765  -0.00000   0.00000  -0.00000  -0.00000   1.93765
   A34        1.86187   0.00000   0.00000  -0.00000  -0.00000   1.86187
   A35        1.89191  -0.00000   0.00000   0.00000   0.00000   1.89191
   A36        1.89790   0.00000   0.00000  -0.00000  -0.00000   1.89790
   A37        2.24033  -0.00000   0.00000  -0.00000  -0.00000   2.24033
   A38        1.91043  -0.00000   0.00000   0.00000   0.00000   1.91043
   A39        2.13238   0.00000   0.00000   0.00000   0.00000   2.13238
   A40        1.54302   0.00000   0.00000   0.00000   0.00000   1.54302
   A41        1.94730   0.00000   0.00000  -0.00000  -0.00000   1.94730
   A42        2.13302  -0.00000   0.00000  -0.00000  -0.00000   2.13302
   A43        2.12801   0.00000   0.00000   0.00000   0.00000   2.12801
   A44        2.02193   0.00000   0.00000  -0.00000  -0.00000   2.02193
   A45        1.91816   0.00000   0.00000   0.00000   0.00000   1.91817
    D1        0.23806  -0.00000   0.00000   0.00013   0.00013   0.23819
    D2       -2.98064  -0.00000   0.00000   0.00010   0.00010  -2.98054
    D3       -1.43598  -0.00000   0.00000   0.00011   0.00011  -1.43587
    D4        1.62852  -0.00000   0.00000   0.00008   0.00008   1.62859
    D5        3.05685   0.00000   0.00000  -0.00001  -0.00001   3.05684
    D6       -0.16184   0.00000   0.00000  -0.00005  -0.00005  -0.16189
    D7        0.74921  -0.00000   0.00000  -0.00012  -0.00012   0.74909
    D8       -2.78727  -0.00000   0.00000   0.00023   0.00023  -2.78704
    D9        2.84248  -0.00000   0.00000  -0.00013  -0.00013   2.84235
   D10       -0.69400  -0.00000   0.00000   0.00022   0.00022  -0.69378
   D11       -1.33824   0.00000   0.00000  -0.00011  -0.00011  -1.33835
   D12        1.40846   0.00000   0.00000   0.00024   0.00024   1.40870
   D13        2.97770   0.00000   0.00000  -0.00010  -0.00010   2.97761
   D14       -0.23246   0.00000   0.00000  -0.00011  -0.00011  -0.23257
   D15        0.15854  -0.00000   0.00000   0.00005   0.00005   0.15859
   D16       -3.05162  -0.00000   0.00000   0.00003   0.00003  -3.05159
   D17       -1.65567   0.00000   0.00000  -0.00006  -0.00006  -1.65573
   D18        1.41735   0.00000   0.00000  -0.00007  -0.00007   1.41728
   D19        3.07918   0.00000   0.00000  -0.00001  -0.00001   3.07917
   D20        0.00615   0.00000   0.00000  -0.00000  -0.00000   0.00615
   D21       -0.06057   0.00000   0.00000  -0.00002  -0.00002  -0.06059
   D22       -3.13360   0.00000   0.00000  -0.00001  -0.00001  -3.13361
   D23        2.13860   0.00000   0.00000   0.00013   0.00013   2.13873
   D24       -2.03170   0.00000   0.00000   0.00013   0.00013  -2.03158
   D25        0.04845   0.00000   0.00000   0.00013   0.00013   0.04858
   D26       -1.00487   0.00000   0.00000   0.00013   0.00013  -1.00474
   D27        1.10801   0.00000   0.00000   0.00013   0.00013   1.10815
   D28       -3.09502   0.00000   0.00000   0.00014   0.00014  -3.09488
   D29       -0.03848   0.00000   0.00000  -0.00000  -0.00000  -0.03849
   D30        3.12689  -0.00000   0.00000   0.00000   0.00000   3.12689
   D31        3.10492   0.00000   0.00000  -0.00001  -0.00001   3.10491
   D32       -0.01289  -0.00000   0.00000  -0.00001  -0.00001  -0.01289
   D33       -3.06975   0.00000   0.00000   0.00001   0.00001  -3.06974
   D34        0.06654   0.00000   0.00000   0.00002   0.00002   0.06656
   D35       -0.00527  -0.00000   0.00000  -0.00002  -0.00002  -0.00530
   D36        3.13101  -0.00000   0.00000  -0.00001  -0.00001   3.13100
   D37        2.78400   0.00000   0.00000   0.00035   0.00035   2.78435
   D38        0.02315   0.00000   0.00000  -0.00001  -0.00001   0.02314
   D39       -2.80944  -0.00000   0.00000  -0.00032  -0.00032  -2.80976
   D40       -0.03119  -0.00000   0.00000   0.00001   0.00001  -0.03118
   D41        2.04791   0.00000   0.00000   0.00010   0.00010   2.04801
   D42       -2.16931   0.00000   0.00000   0.00010   0.00010  -2.16921
   D43       -0.05241   0.00000   0.00000   0.00010   0.00010  -0.05231
   D44       -1.08832   0.00000   0.00000   0.00009   0.00009  -1.08823
   D45        0.97765   0.00000   0.00000   0.00009   0.00009   0.97774
   D46        3.09455   0.00000   0.00000   0.00008   0.00008   3.09464
   D47        0.03559  -0.00000   0.00000   0.00000   0.00000   0.03559
   D48       -3.12844  -0.00000   0.00000  -0.00000  -0.00000  -3.12844
   D49       -3.11114  -0.00000   0.00000   0.00002   0.00002  -3.11112
   D50        0.00803  -0.00000   0.00000   0.00001   0.00001   0.00804
   D51        0.00543  -0.00000   0.00000  -0.00001  -0.00001   0.00542
   D52        3.13645  -0.00000   0.00000   0.00000   0.00000   3.13645
   D53       -3.13858   0.00000   0.00000   0.00000   0.00000  -3.13858
   D54       -0.00756   0.00000   0.00000   0.00001   0.00001  -0.00756
   D55       -3.11852   0.00000   0.00000  -0.00001  -0.00001  -3.11852
   D56        0.02535   0.00000   0.00000  -0.00001  -0.00001   0.02533
   D57       -0.00768  -0.00000   0.00000  -0.00000  -0.00000  -0.00768
   D58        3.12412  -0.00000   0.00000   0.00001   0.00001   3.12412
   D59       -0.06682  -0.00000   0.00000  -0.00006  -0.00006  -0.06688
   D60        3.09713  -0.00000   0.00000  -0.00005  -0.00005   3.09707
         Item               Value     Threshold  Converged?
 Maximum Force            0.000006     0.000450     YES
 RMS     Force            0.000001     0.000300     YES
 Maximum Displacement     0.001117     0.001800     YES
 RMS     Displacement     0.000247     0.001200     YES
 Predicted change in Energy= 5.618901D-10
 Optimization completed.
    -- Stationary point found.
                           ----------------------------
                           !   Optimized Parameters   !
                           ! (Angstroms and Degrees)  !
 --------------------------                            --------------------------
 ! Name  Definition              Value          Derivative Info.                !
 --------------------------------------------------------------------------------
 ! R1    R(1,2)                  1.0845         -DE/DX =    0.0                 !
 ! R2    R(1,4)                  1.4158         -DE/DX =    0.0                 !
 ! R3    R(1,6)                  2.2528         -DE/DX =    0.0                 !
 ! R4    R(1,7)                  1.4154         -DE/DX =    0.0                 !
 ! R5    R(3,7)                  1.3883         -DE/DX =    0.0                 !
 ! R6    R(3,11)                 1.5098         -DE/DX =    0.0                 !
 ! R7    R(3,23)                 1.4104         -DE/DX =    0.0                 !
 ! R8    R(4,5)                  1.0856         -DE/DX =    0.0                 !
 ! R9    R(4,8)                  1.3842         -DE/DX =    0.0                 !
 ! R10   R(6,21)                 1.7692         -DE/DX =    0.0                 !
 ! R11   R(6,22)                 1.2798         -DE/DX =    0.0                 !
 ! R12   R(7,26)                 1.0859         -DE/DX =    0.0                 !
 ! R13   R(8,15)                 1.5055         -DE/DX =    0.0                 !
 ! R14   R(8,23)                 1.4122         -DE/DX =    0.0                 !
 ! R15   R(9,10)                 1.0841         -DE/DX =    0.0                 !
 ! R16   R(9,19)                 1.3628         -DE/DX =    0.0                 !
 ! R17   R(9,22)                 1.3892         -DE/DX =    0.0                 !
 ! R18   R(11,12)                1.0985         -DE/DX =    0.0                 !
 ! R19   R(11,13)                1.0988         -DE/DX =    0.0                 !
 ! R20   R(11,14)                1.0922         -DE/DX =    0.0                 !
 ! R21   R(15,16)                1.0953         -DE/DX =    0.0                 !
 ! R22   R(15,17)                1.0951         -DE/DX =    0.0                 !
 ! R23   R(15,18)                1.0927         -DE/DX =    0.0                 !
 ! R24   R(19,20)                1.0813         -DE/DX =    0.0                 !
 ! R25   R(19,21)                1.7495         -DE/DX =    0.0                 !
 ! R26   R(23,24)                1.3662         -DE/DX =    0.0                 !
 ! R27   R(24,25)                0.9653         -DE/DX =    0.0                 !
 ! A1    A(2,1,4)              119.4066         -DE/DX =    0.0                 !
 ! A2    A(2,1,6)               90.7142         -DE/DX =    0.0                 !
 ! A3    A(2,1,7)              119.2928         -DE/DX =    0.0                 !
 ! A4    A(4,1,6)               98.9307         -DE/DX =    0.0                 !
 ! A5    A(4,1,7)              118.6723         -DE/DX =    0.0                 !
 ! A6    A(6,1,7)               96.563          -DE/DX =    0.0                 !
 ! A7    A(7,3,11)             121.7357         -DE/DX =    0.0                 !
 ! A8    A(7,3,23)             118.1487         -DE/DX =    0.0                 !
 ! A9    A(11,3,23)            120.1156         -DE/DX =    0.0                 !
 ! A10   A(1,4,5)              119.3301         -DE/DX =    0.0                 !
 ! A11   A(1,4,8)              121.17           -DE/DX =    0.0                 !
 ! A12   A(5,4,8)              119.3541         -DE/DX =    0.0                 !
 ! A13   A(1,6,21)             122.9583         -DE/DX =    0.0                 !
 ! A14   A(1,6,22)             118.6786         -DE/DX =    0.0                 !
 ! A15   A(21,6,22)            114.7339         -DE/DX =    0.0                 !
 ! A16   A(1,7,3)              121.0028         -DE/DX =    0.0                 !
 ! A17   A(1,7,26)             119.4466         -DE/DX =    0.0                 !
 ! A18   A(3,7,26)             119.4352         -DE/DX =    0.0                 !
 ! A19   A(4,8,15)             122.5365         -DE/DX =    0.0                 !
 ! A20   A(4,8,23)             118.1187         -DE/DX =    0.0                 !
 ! A21   A(15,8,23)            119.3442         -DE/DX =    0.0                 !
 ! A22   A(10,9,19)            124.9635         -DE/DX =    0.0                 !
 ! A23   A(10,9,22)            119.2362         -DE/DX =    0.0                 !
 ! A24   A(19,9,22)            115.8002         -DE/DX =    0.0                 !
 ! A25   A(3,11,12)            112.1184         -DE/DX =    0.0                 !
 ! A26   A(3,11,13)            111.771          -DE/DX =    0.0                 !
 ! A27   A(3,11,14)            110.9123         -DE/DX =    0.0                 !
 ! A28   A(12,11,13)           107.7109         -DE/DX =    0.0                 !
 ! A29   A(12,11,14)           107.164          -DE/DX =    0.0                 !
 ! A30   A(13,11,14)           106.8952         -DE/DX =    0.0                 !
 ! A31   A(8,15,16)            110.5475         -DE/DX =    0.0                 !
 ! A32   A(8,15,17)            111.3104         -DE/DX =    0.0                 !
 ! A33   A(8,15,18)            111.0192         -DE/DX =    0.0                 !
 ! A34   A(16,15,17)           106.6771         -DE/DX =    0.0                 !
 ! A35   A(16,15,18)           108.3982         -DE/DX =    0.0                 !
 ! A36   A(17,15,18)           108.7418         -DE/DX =    0.0                 !
 ! A37   A(9,19,20)            128.3613         -DE/DX =    0.0                 !
 ! A38   A(9,19,21)            109.4594         -DE/DX =    0.0                 !
 ! A39   A(20,19,21)           122.1765         -DE/DX =    0.0                 !
 ! A40   A(6,21,19)             88.4084         -DE/DX =    0.0                 !
 ! A41   A(6,22,9)             111.572          -DE/DX =    0.0                 !
 ! A42   A(3,23,8)             122.213          -DE/DX =    0.0                 !
 ! A43   A(3,23,24)            121.9262         -DE/DX =    0.0                 !
 ! A44   A(8,23,24)            115.8479         -DE/DX =    0.0                 !
 ! A45   A(23,24,25)           109.9028         -DE/DX =    0.0                 !
 ! D1    D(2,1,4,5)             13.6398         -DE/DX =    0.0                 !
 ! D2    D(2,1,4,8)           -170.7778         -DE/DX =    0.0                 !
 ! D3    D(6,1,4,5)            -82.2753         -DE/DX =    0.0                 !
 ! D4    D(6,1,4,8)             93.3071         -DE/DX =    0.0                 !
 ! D5    D(7,1,4,5)            175.1446         -DE/DX =    0.0                 !
 ! D6    D(7,1,4,8)             -9.2729         -DE/DX =    0.0                 !
 ! D7    D(2,1,6,21)            42.9265         -DE/DX =    0.0                 !
 ! D8    D(2,1,6,22)          -159.699          -DE/DX =    0.0                 !
 ! D9    D(4,1,6,21)           162.8621         -DE/DX =    0.0                 !
 ! D10   D(4,1,6,22)           -39.7633         -DE/DX =    0.0                 !
 ! D11   D(7,1,6,21)           -76.6756         -DE/DX =    0.0                 !
 ! D12   D(7,1,6,22)            80.6989         -DE/DX =    0.0                 !
 ! D13   D(2,1,7,3)            170.6099         -DE/DX =    0.0                 !
 ! D14   D(2,1,7,26)           -13.3187         -DE/DX =    0.0                 !
 ! D15   D(4,1,7,3)              9.0836         -DE/DX =    0.0                 !
 ! D16   D(4,1,7,26)          -174.845          -DE/DX =    0.0                 !
 ! D17   D(6,1,7,3)            -94.863          -DE/DX =    0.0                 !
 ! D18   D(6,1,7,26)            81.2083         -DE/DX =    0.0                 !
 ! D19   D(11,3,7,1)           176.4241         -DE/DX =    0.0                 !
 ! D20   D(11,3,7,26)            0.3523         -DE/DX =    0.0                 !
 ! D21   D(23,3,7,1)            -3.4703         -DE/DX =    0.0                 !
 ! D22   D(23,3,7,26)         -179.5421         -DE/DX =    0.0                 !
 ! D23   D(7,3,11,12)          122.5327         -DE/DX =    0.0                 !
 ! D24   D(7,3,11,13)         -116.408          -DE/DX =    0.0                 !
 ! D25   D(7,3,11,14)            2.7762         -DE/DX =    0.0                 !
 ! D26   D(23,3,11,12)         -57.5749         -DE/DX =    0.0                 !
 ! D27   D(23,3,11,13)          63.4844         -DE/DX =    0.0                 !
 ! D28   D(23,3,11,14)        -177.3315         -DE/DX =    0.0                 !
 ! D29   D(7,3,23,8)            -2.2049         -DE/DX =    0.0                 !
 ! D30   D(7,3,23,24)          179.1577         -DE/DX =    0.0                 !
 ! D31   D(11,3,23,8)          177.8989         -DE/DX =    0.0                 !
 ! D32   D(11,3,23,24)          -0.7385         -DE/DX =    0.0                 !
 ! D33   D(1,4,8,15)          -175.8836         -DE/DX =    0.0                 !
 ! D34   D(1,4,8,23)             3.8125         -DE/DX =    0.0                 !
 ! D35   D(5,4,8,15)            -0.3022         -DE/DX =    0.0                 !
 ! D36   D(5,4,8,23)           179.3939         -DE/DX =    0.0                 !
 ! D37   D(1,6,21,19)          159.5117         -DE/DX =    0.0                 !
 ! D38   D(22,6,21,19)           1.3262         -DE/DX =    0.0                 !
 ! D39   D(1,6,22,9)          -160.9693         -DE/DX =    0.0                 !
 ! D40   D(21,6,22,9)           -1.7871         -DE/DX =    0.0                 !
 ! D41   D(4,8,15,16)          117.3364         -DE/DX =    0.0                 !
 ! D42   D(4,8,15,17)         -124.2922         -DE/DX =    0.0                 !
 ! D43   D(4,8,15,18)           -3.0027         -DE/DX =    0.0                 !
 ! D44   D(23,8,15,16)         -62.3561         -DE/DX =    0.0                 !
 ! D45   D(23,8,15,17)          56.0153         -DE/DX =    0.0                 !
 ! D46   D(23,8,15,18)         177.3048         -DE/DX =    0.0                 !
 ! D47   D(4,8,23,3)             2.0389         -DE/DX =    0.0                 !
 ! D48   D(4,8,23,24)         -179.2461         -DE/DX =    0.0                 !
 ! D49   D(15,8,23,3)         -178.2551         -DE/DX =    0.0                 !
 ! D50   D(15,8,23,24)           0.4599         -DE/DX =    0.0                 !
 ! D51   D(10,9,19,20)           0.311          -DE/DX =    0.0                 !
 ! D52   D(10,9,19,21)         179.7052         -DE/DX =    0.0                 !
 ! D53   D(22,9,19,20)        -179.8275         -DE/DX =    0.0                 !
 ! D54   D(22,9,19,21)          -0.4334         -DE/DX =    0.0                 !
 ! D55   D(10,9,22,6)         -178.6779         -DE/DX =    0.0                 !
 ! D56   D(19,9,22,6)            1.4522         -DE/DX =    0.0                 !
 ! D57   D(9,19,21,6)           -0.4399         -DE/DX =    0.0                 !
 ! D58   D(20,19,21,6)         178.9988         -DE/DX =    0.0                 !
 ! D59   D(3,23,24,25)          -3.8288         -DE/DX =    0.0                 !
 ! D60   D(8,23,24,25)         177.4522         -DE/DX =    0.0                 !
 --------------------------------------------------------------------------------
 GradGradGradGradGradGradGradGradGradGradGradGradGradGradGradGradGradGrad

                          Input orientation:                          
 ---------------------------------------------------------------------
 Center     Atomic      Atomic             Coordinates (Angstroms)
 Number     Number       Type             X           Y           Z
 ---------------------------------------------------------------------
      1          6           0        4.742917   -2.163220    2.163096
      2          1           0        5.746522   -1.770298    2.283887
      3          6           0        3.279775   -3.803632    1.103137
      4          6           0        3.807738   -2.016948    3.215918
      5          1           0        4.024983   -1.330780    4.028660
      6          6           0        4.160315   -0.372495    0.926508
      7          6           0        4.495574   -3.136217    1.165338
      8          6           0        2.584095   -2.663168    3.182204
      9          6           0        2.689739    0.738427   -0.289442
     10          1           0        1.679973    1.073456   -0.497627
     11          6           0        2.968674   -4.786022   -0.000275
     12          1           0        2.714710   -5.780556    0.390880
     13          1           0        2.129019   -4.447249   -0.622767
     14          1           0        3.826477   -4.910430   -0.664771
     15          6           0        1.531274   -2.459115    4.238791
     16          1           0        0.628213   -2.019669    3.801814
     17          1           0        1.230957   -3.410517    4.690350
     18          1           0        1.891361   -1.794270    5.027621
     19          6           0        3.788376    1.064507   -1.026879
     20          1           0        3.844360    1.690363   -1.906854
     21         16           0        5.204461    0.312737   -0.326663
     22          7           0        2.918352   -0.089620    0.802368
     23          6           0        2.323953   -3.540082    2.106288
     24          8           0        1.096797   -4.140477    2.110564
     25          1           0        0.995503   -4.686764    1.321241
     26          1           0        5.243766   -3.317727    0.399570
 ---------------------------------------------------------------------
                    Distance matrix (angstroms):
                    1          2          3          4          5
     1  C    0.000000
     2  H    1.084528   0.000000
     3  C    2.440338   3.407853   0.000000
     4  C    1.415765   2.165271   2.816883   0.000000
     5  H    2.165344   2.490202   3.902437   1.085620   0.000000
     6  C    2.252836   2.512445   3.546724   2.840762   3.249611
     7  C    1.415423   2.163737   1.388337   2.435315   3.417553
     8  C    2.439066   3.406632   2.471265   1.384211   2.137266
     9  C    4.318569   4.718012   4.787245   4.596690   4.970966
    10  H    5.190101   5.688636   5.376597   5.279052   5.636196
    11  C    3.834997   4.693445   1.509765   4.326164   5.411728
    12  H    4.509933   5.371920   2.175968   4.831179   5.894978
    13  H    4.450874   5.357334   2.171917   4.843548   5.911246
    14  H    4.047698   4.716099   2.156243   4.840696   5.906064
    15  C    3.835455   4.697280   3.833707   2.534575   2.745156
    16  H    4.431342   5.344471   4.182841   3.233058   3.473338
    17  H    4.502957   5.373240   4.149734   3.279601   3.545380
    18  H    4.058695   4.731904   4.622424   2.646574   2.401060
    19  C    4.637382   4.778245   5.338017   5.243764   5.599273
    20  H    5.676442   5.758185   6.289895   6.323629   6.662601
    21  S    3.541508   3.383464   4.763742   4.464094   4.802203
    22  N    3.079032   3.608063   3.743658   3.214159   3.629610
    23  C    2.783948   3.857157   1.410449   2.398507   3.386744
    24  O    4.148071   5.221851   2.427708   3.616681   4.488626
    25  H    4.595662   5.657265   2.458738   4.315830   5.269772
    26  H    2.166508   2.489568   2.142048   3.418481   4.313198
                    6          7          8          9         10
     6  C    0.000000
     7  C    2.794208   0.000000
     8  C    3.580477   2.818737   0.000000
     9  C    2.208002   4.515561   4.861516   0.000000
    10  H    3.204845   5.330517   5.321743   1.084073   0.000000
    11  C    4.664564   2.532180   3.844812   5.539040   6.020099
    12  H    5.623504   3.280821   4.186485   6.554433   6.988390
    13  H    4.809370   3.242947   4.227037   5.226543   5.540351
    14  H    4.820423   2.635303   4.625248   5.774308   6.359427
    15  C    4.715618   4.323385   1.505472   5.663145   5.910569
    16  H    4.843172   4.811877   2.150228   5.347463   5.399890
    17  H    5.654840   4.812346   2.159633   6.643802   6.871880
    18  H    4.897828   4.847677   2.154165   5.943326   6.228716
    19  C    2.453372   4.790828   5.749977   1.362771   2.173833
    20  H    3.518970   5.758327   6.814691   2.203487   2.655385
    21  S    1.769243   3.824117   5.294759   2.550769   3.609701
    22  N    1.279805   3.449802   3.521150   1.389236   2.139233
    23  C    3.846779   2.400923   1.412178   4.917210   5.336648
    24  O    4.998482   3.667925   2.354338   5.665792   5.858998
    25  H    5.365144   3.831319   3.175177   5.907406   6.079220
    26  H    3.182125   1.085881   3.904529   4.842538   5.726087
                   11         12         13         14         15
    11  C    0.000000
    12  H    1.098452   0.000000
    13  H    1.098765   1.774322   0.000000
    14  H    1.092180   1.762822   1.760017   0.000000
    15  C    5.044829   5.219091   5.286277   5.943216   0.000000
    16  H    5.252270   5.489281   5.265214   6.207718   1.095253
    17  H    5.187835   5.128748   5.487307   6.137082   1.095108
    18  H    5.949027   6.169907   6.246732   6.771887   1.092673
    19  C    5.996209   7.072318   5.770289   5.986022   6.725898
    20  H    6.807749   7.897488   6.500890   6.716663   7.767721
    21  S    5.576972   6.621325   5.674812   5.412452   6.482193
    22  N    4.764763   5.709425   4.652203   5.120293   4.398578
    23  C    2.530936   2.848691   2.882480   3.437179   2.518809
    24  O    2.894182   2.874858   2.937803   3.968181   2.746835
    25  H    2.376902   2.240006   2.263049   3.465355   3.709659
    26  H    2.737117   3.530117   3.467368   2.382905   5.409199
                   16         17         18         19         20
    16  H    0.000000
    17  H    1.757058   0.000000
    18  H    1.774528   1.778240   0.000000
    19  C    6.543321   7.697593   6.959040   0.000000
    20  H    7.529730   8.739105   8.002738   1.081289   0.000000
    21  S    6.589877   7.404172   6.639613   1.749502   2.498946
    22  N    4.238691   5.384427   4.670471   2.331330   3.371308
    23  C    2.839365   2.808701   3.430624   5.758777   6.765685
    24  O    2.752767   2.684425   3.826911   6.646804   7.595225
    25  H    3.660811   3.610422   4.786057   6.811089   7.694436
    26  H    5.879077   5.875546   5.914254   4.832897   5.688488
                   21         22         23         24         25
    21  S    0.000000
    22  N    2.581259   0.000000
    23  C    5.390806   3.736201   0.000000
    24  O    6.530244   4.630214   1.366164   0.000000
    25  H    6.739876   5.010021   1.922488   0.965257   0.000000
    26  H    3.702597   3.998809   3.389342   4.560895   4.557574
                   26
    26  H    0.000000
 Symmetry turned off by external request.
 Stoichiometry    C11H12NOS(2)
 Framework group  C1[X(C11H12NOS)]
 Deg. of freedom    72
 Full point group                 C1      NOp   1
 Rotational constants (GHZ):           1.0110811           0.3888269           0.3608723

 **********************************************************************

            Population analysis using the SCF Density.

 **********************************************************************

 Alpha  occ. eigenvalues --  -88.89809 -19.18659 -14.32079 -10.25066 -10.23518
 Alpha  occ. eigenvalues --  -10.21087 -10.20678 -10.20186 -10.19987 -10.19893
 Alpha  occ. eigenvalues --  -10.19270 -10.19245 -10.18721 -10.17619  -7.95953
 Alpha  occ. eigenvalues --   -5.92386  -5.92005  -5.91628  -1.06762  -0.94546
 Alpha  occ. eigenvalues --   -0.85602  -0.78818  -0.77955  -0.75626  -0.71781
 Alpha  occ. eigenvalues --   -0.69957  -0.68131  -0.61317  -0.58465  -0.57397
 Alpha  occ. eigenvalues --   -0.54123  -0.52084  -0.48970  -0.48439  -0.46713
 Alpha  occ. eigenvalues --   -0.44340  -0.42679  -0.41545  -0.41141  -0.40965
 Alpha  occ. eigenvalues --   -0.40534  -0.39172  -0.39020  -0.38058  -0.37651
 Alpha  occ. eigenvalues --   -0.35693  -0.35189  -0.34989  -0.33381  -0.28716
 Alpha  occ. eigenvalues --   -0.26764  -0.24846  -0.24555  -0.23021  -0.17217
 Alpha virt. eigenvalues --   -0.01162   0.00641   0.01646   0.03317   0.05927
 Alpha virt. eigenvalues --    0.06983   0.10072   0.12418   0.12778   0.13248
 Alpha virt. eigenvalues --    0.13468   0.13688   0.14998   0.16116   0.17291
 Alpha virt. eigenvalues --    0.17899   0.18460   0.18900   0.20914   0.22749
 Alpha virt. eigenvalues --    0.24408   0.25419   0.25555   0.28035   0.31042
 Alpha virt. eigenvalues --    0.32356   0.32588   0.36569   0.36613   0.37903
 Alpha virt. eigenvalues --    0.38635   0.40691   0.43422   0.46292   0.48987
 Alpha virt. eigenvalues --    0.51551   0.51887   0.52314   0.53501   0.54020
 Alpha virt. eigenvalues --    0.54732   0.55825   0.56492   0.56894   0.58350
 Alpha virt. eigenvalues --    0.58839   0.59724   0.60681   0.62510   0.63741
 Alpha virt. eigenvalues --    0.64951   0.65922   0.67021   0.68530   0.70569
 Alpha virt. eigenvalues --    0.71500   0.72900   0.73594   0.75535   0.76405
 Alpha virt. eigenvalues --    0.77468   0.78522   0.79948   0.81253   0.81954
 Alpha virt. eigenvalues --    0.82060   0.82602   0.83690   0.84101   0.84476
 Alpha virt. eigenvalues --    0.85768   0.86853   0.88196   0.89598   0.89785
 Alpha virt. eigenvalues --    0.90272   0.91582   0.92753   0.93401   0.94042
 Alpha virt. eigenvalues --    0.97221   0.98917   0.99339   1.00997   1.02015
 Alpha virt. eigenvalues --    1.04689   1.05708   1.06019   1.09557   1.10265
 Alpha virt. eigenvalues --    1.12298   1.16677   1.19518   1.23093   1.23940
 Alpha virt. eigenvalues --    1.25069   1.27988   1.30420   1.31257   1.32811
 Alpha virt. eigenvalues --    1.34418   1.36820   1.38529   1.38920   1.41963
 Alpha virt. eigenvalues --    1.43004   1.44027   1.45278   1.55192   1.57693
 Alpha virt. eigenvalues --    1.58601   1.59229   1.66375   1.68877   1.69650
 Alpha virt. eigenvalues --    1.72731   1.73432   1.73928   1.76014   1.77326
 Alpha virt. eigenvalues --    1.79230   1.81832   1.83689   1.85746   1.88609
 Alpha virt. eigenvalues --    1.89329   1.89409   1.92636   1.92990   1.94046
 Alpha virt. eigenvalues --    1.96892   1.98027   1.99506   2.02749   2.02880
 Alpha virt. eigenvalues --    2.05139   2.07416   2.08029   2.10527   2.11131
 Alpha virt. eigenvalues --    2.12347   2.13104   2.14164   2.16154   2.18234
 Alpha virt. eigenvalues --    2.20054   2.21177   2.23918   2.27309   2.29123
 Alpha virt. eigenvalues --    2.30714   2.31727   2.32470   2.32973   2.35647
 Alpha virt. eigenvalues --    2.36439   2.39149   2.39902   2.43345   2.43799
 Alpha virt. eigenvalues --    2.45432   2.46230   2.49181   2.51476   2.51954
 Alpha virt. eigenvalues --    2.53334   2.54534   2.55064   2.55175   2.57917
 Alpha virt. eigenvalues --    2.58621   2.59817   2.65268   2.67836   2.68399
 Alpha virt. eigenvalues --    2.68829   2.70051   2.71331   2.74760   2.77375
 Alpha virt. eigenvalues --    2.80209   2.82245   2.84169   2.85241   2.87667
 Alpha virt. eigenvalues --    2.91110   2.91800   2.98875   3.07584   3.11288
 Alpha virt. eigenvalues --    3.13616   3.17643   3.18688   3.20635   3.25011
 Alpha virt. eigenvalues --    3.29102   3.31905   3.40794   3.41199   3.43904
 Alpha virt. eigenvalues --    3.45926   3.48363   3.51261   3.60737   3.77597
 Alpha virt. eigenvalues --    3.94801   4.00368   4.08134   4.13549   4.17490
 Alpha virt. eigenvalues --    4.24508   4.31092   4.39234   4.44205   4.50684
 Alpha virt. eigenvalues --    4.52542   4.53975   4.59112   4.85288
  Beta  occ. eigenvalues --  -88.89737 -19.18529 -14.32003 -10.24783 -10.22265
  Beta  occ. eigenvalues --  -10.20964 -10.20695 -10.20236 -10.20011 -10.19974
  Beta  occ. eigenvalues --  -10.19359 -10.19003 -10.18492 -10.17613  -7.95874
  Beta  occ. eigenvalues --   -5.92252  -5.91885  -5.91589  -1.06461  -0.94099
  Beta  occ. eigenvalues --   -0.85331  -0.78798  -0.77615  -0.75364  -0.71093
  Beta  occ. eigenvalues --   -0.69691  -0.67817  -0.61197  -0.58295  -0.56996
  Beta  occ. eigenvalues --   -0.53942  -0.50979  -0.48832  -0.47884  -0.46604
  Beta  occ. eigenvalues --   -0.44072  -0.42555  -0.41459  -0.41067  -0.40854
  Beta  occ. eigenvalues --   -0.40057  -0.38917  -0.38779  -0.37607  -0.37499
  Beta  occ. eigenvalues --   -0.35092  -0.34909  -0.34050  -0.33268  -0.27148
  Beta  occ. eigenvalues --   -0.26724  -0.24067  -0.23065  -0.22280
  Beta virt. eigenvalues --   -0.08190  -0.00322   0.01612   0.02847   0.03706
  Beta virt. eigenvalues --    0.05974   0.07623   0.10268   0.12771   0.13237
  Beta virt. eigenvalues --    0.13401   0.13575   0.13938   0.15036   0.16133
  Beta virt. eigenvalues --    0.17345   0.18042   0.18546   0.19006   0.21199
  Beta virt. eigenvalues --    0.22867   0.24550   0.25578   0.25986   0.28661
  Beta virt. eigenvalues --    0.31210   0.32491   0.32772   0.36639   0.36898
  Beta virt. eigenvalues --    0.38079   0.39347   0.41025   0.43728   0.46439
  Beta virt. eigenvalues --    0.49063   0.51904   0.52304   0.52844   0.54022
  Beta virt. eigenvalues --    0.54131   0.55100   0.55968   0.56642   0.57139
  Beta virt. eigenvalues --    0.58520   0.59229   0.60049   0.60914   0.62936
  Beta virt. eigenvalues --    0.64718   0.65389   0.66463   0.67289   0.68643
  Beta virt. eigenvalues --    0.71266   0.71451   0.73100   0.74104   0.75585
  Beta virt. eigenvalues --    0.76465   0.77655   0.78811   0.80163   0.81453
  Beta virt. eigenvalues --    0.82056   0.82234   0.82956   0.83840   0.84184
  Beta virt. eigenvalues --    0.84636   0.85856   0.87088   0.88332   0.89695
  Beta virt. eigenvalues --    0.89839   0.90601   0.91706   0.92944   0.93592
  Beta virt. eigenvalues --    0.94435   0.97627   0.99413   0.99704   1.01169
  Beta virt. eigenvalues --    1.02337   1.04956   1.05806   1.06238   1.09747
  Beta virt. eigenvalues --    1.10483   1.12520   1.16958   1.19707   1.23331
  Beta virt. eigenvalues --    1.24100   1.25383   1.28297   1.30603   1.31845
  Beta virt. eigenvalues --    1.33160   1.34598   1.37012   1.38998   1.39241
  Beta virt. eigenvalues --    1.42541   1.43471   1.44386   1.45943   1.55723
  Beta virt. eigenvalues --    1.57885   1.58836   1.59996   1.67302   1.69183
  Beta virt. eigenvalues --    1.69887   1.72915   1.73753   1.74073   1.76172
  Beta virt. eigenvalues --    1.77649   1.79342   1.82086   1.83696   1.86663
  Beta virt. eigenvalues --    1.88959   1.89660   1.89910   1.93013   1.93084
  Beta virt. eigenvalues --    1.94141   1.97435   1.98397   1.99857   2.02787
  Beta virt. eigenvalues --    2.03085   2.05125   2.07571   2.08067   2.10528
  Beta virt. eigenvalues --    2.11306   2.12428   2.13422   2.14219   2.16202
  Beta virt. eigenvalues --    2.18392   2.20295   2.22665   2.24603   2.28794
  Beta virt. eigenvalues --    2.29621   2.31024   2.31817   2.32929   2.33560
  Beta virt. eigenvalues --    2.36235   2.37156   2.39265   2.40046   2.43493
  Beta virt. eigenvalues --    2.44172   2.45598   2.46658   2.49412   2.51878
  Beta virt. eigenvalues --    2.52337   2.53518   2.54857   2.55322   2.55561
  Beta virt. eigenvalues --    2.58099   2.58897   2.60086   2.65354   2.68021
  Beta virt. eigenvalues --    2.68651   2.69075   2.70249   2.71499   2.74806
  Beta virt. eigenvalues --    2.77419   2.80275   2.82319   2.84940   2.85362
  Beta virt. eigenvalues --    2.87670   2.91661   2.91950   2.99057   3.07643
  Beta virt. eigenvalues --    3.11613   3.13699   3.17674   3.18798   3.20621
  Beta virt. eigenvalues --    3.25070   3.29240   3.31970   3.40768   3.41290
  Beta virt. eigenvalues --    3.43869   3.45982   3.48368   3.51295   3.60888
  Beta virt. eigenvalues --    3.77747   3.95158   4.00686   4.08358   4.14474
  Beta virt. eigenvalues --    4.17537   4.24671   4.32221   4.39654   4.44504
  Beta virt. eigenvalues --    4.50799   4.52812   4.54041   4.59184   4.85497
          Condensed to atoms (all electrons):
               1          2          3          4          5          6
     1  C    4.971276   0.372223  -0.015156   0.458062  -0.046427   0.044626
     2  H    0.372223   0.616227   0.003952  -0.035392  -0.005447  -0.015514
     3  C   -0.015156   0.003952   4.922333  -0.047291   0.000406  -0.003365
     4  C    0.458062  -0.035392  -0.047291   4.892992   0.366600  -0.020686
     5  H   -0.046427  -0.005447   0.000406   0.366600   0.627811   0.000756
     6  C    0.044626  -0.015514  -0.003365  -0.020686   0.000756   5.415555
     7  C    0.458643  -0.038562   0.544125  -0.031187   0.004754  -0.017731
     8  C   -0.012435   0.003595  -0.061989   0.573291  -0.037083  -0.003843
     9  C    0.000949  -0.000044  -0.000032  -0.000077   0.000004  -0.090500
    10  H   -0.000007   0.000000   0.000004   0.000003  -0.000000   0.008021
    11  C    0.007384  -0.000171   0.329004   0.000153   0.000007  -0.000057
    12  H   -0.000102   0.000004  -0.034083  -0.000003  -0.000000  -0.000003
    13  H   -0.000275   0.000001  -0.031317   0.000064   0.000000   0.000027
    14  H    0.000100  -0.000009  -0.024731   0.000007  -0.000000  -0.000002
    15  C    0.007395  -0.000163   0.009658  -0.061679  -0.011340  -0.000004
    16  H   -0.000304   0.000001  -0.000208   0.000876   0.000194   0.000010
    17  H   -0.000112   0.000004  -0.000002   0.001072   0.000119  -0.000003
    18  H    0.000069  -0.000007  -0.000146  -0.005446   0.006226  -0.000001
    19  C    0.000136   0.000000  -0.000010   0.000017  -0.000000  -0.050046
    20  H   -0.000001   0.000000  -0.000000   0.000000  -0.000000   0.003485
    21  S   -0.008099   0.001085   0.000191   0.001287  -0.000041   0.224925
    22  N   -0.012387   0.000781   0.001730  -0.001118  -0.000045   0.512028
    23  C   -0.062213   0.001021   0.412090  -0.008450   0.006188   0.000769
    24  O   -0.000070   0.000002  -0.083099   0.003758  -0.000059  -0.000002
    25  H   -0.000059  -0.000000  -0.022458  -0.000071   0.000006   0.000000
    26  H   -0.043967  -0.005468  -0.036159   0.004486  -0.000188   0.000378
               7          8          9         10         11         12
     1  C    0.458643  -0.012435   0.000949  -0.000007   0.007384  -0.000102
     2  H   -0.038562   0.003595  -0.000044   0.000000  -0.000171   0.000004
     3  C    0.544125  -0.061989  -0.000032   0.000004   0.329004  -0.034083
     4  C   -0.031187   0.573291  -0.000077   0.000003   0.000153  -0.000003
     5  H    0.004754  -0.037083   0.000004  -0.000000   0.000007  -0.000000
     6  C   -0.017731  -0.003843  -0.090500   0.008021  -0.000057  -0.000003
     7  C    4.906651  -0.042199  -0.000066   0.000001  -0.057093   0.000238
     8  C   -0.042199   4.787132  -0.000057   0.000006   0.007687  -0.000029
     9  C   -0.000066  -0.000057   4.754379   0.381300  -0.000003  -0.000000
    10  H    0.000001   0.000006   0.381300   0.605763   0.000000   0.000000
    11  C   -0.057093   0.007687  -0.000003   0.000000   5.083833   0.370936
    12  H    0.000238  -0.000029  -0.000000   0.000000   0.370936   0.609779
    13  H    0.000085  -0.000246   0.000001  -0.000000   0.369032  -0.042752
    14  H   -0.002469  -0.000137   0.000000   0.000000   0.374109  -0.025004
    15  C   -0.000136   0.347494  -0.000002   0.000000  -0.000173   0.000003
    16  H    0.000065  -0.025707   0.000001  -0.000001  -0.000001   0.000001
    17  H   -0.000013  -0.026821  -0.000000   0.000000   0.000006  -0.000002
    18  H    0.000007  -0.026318   0.000000  -0.000000   0.000001   0.000000
    19  C   -0.000043   0.000002   0.567895  -0.057542   0.000000   0.000000
    20  H    0.000001   0.000000  -0.019354  -0.001016   0.000000  -0.000000
    21  S    0.001330   0.000065  -0.106148   0.005288   0.000006   0.000000
    22  N   -0.002822   0.003366   0.415260  -0.044015  -0.000038   0.000000
    23  C    0.013374   0.456118   0.000067  -0.000003  -0.056044  -0.002990
    24  O    0.003997  -0.076567  -0.000000  -0.000000  -0.008712   0.001274
    25  H    0.000213   0.008962  -0.000000  -0.000000   0.014707   0.002462
    26  H    0.364972   0.000615   0.000000  -0.000000  -0.010708   0.000129
              13         14         15         16         17         18
     1  C   -0.000275   0.000100   0.007395  -0.000304  -0.000112   0.000069
     2  H    0.000001  -0.000009  -0.000163   0.000001   0.000004  -0.000007
     3  C   -0.031317  -0.024731   0.009658  -0.000208  -0.000002  -0.000146
     4  C    0.000064   0.000007  -0.061679   0.000876   0.001072  -0.005446
     5  H    0.000000  -0.000000  -0.011340   0.000194   0.000119   0.006226
     6  C    0.000027  -0.000002  -0.000004   0.000010  -0.000003  -0.000001
     7  C    0.000085  -0.002469  -0.000136   0.000065  -0.000013   0.000007
     8  C   -0.000246  -0.000137   0.347494  -0.025707  -0.026821  -0.026318
     9  C    0.000001   0.000000  -0.000002   0.000001  -0.000000   0.000000
    10  H   -0.000000   0.000000   0.000000  -0.000001   0.000000  -0.000000
    11  C    0.369032   0.374109  -0.000173  -0.000001   0.000006   0.000001
    12  H   -0.042752  -0.025004   0.000003   0.000001  -0.000002   0.000000
    13  H    0.602455  -0.025195  -0.000001  -0.000001   0.000001  -0.000000
    14  H   -0.025195   0.567284   0.000002  -0.000000   0.000000  -0.000000
    15  C   -0.000001   0.000002   5.011301   0.374364   0.374721   0.369426
    16  H   -0.000001  -0.000000   0.374364   0.579784  -0.033530  -0.028300
    17  H    0.000001   0.000000   0.374721  -0.033530   0.594373  -0.029732
    18  H   -0.000000  -0.000000   0.369426  -0.028300  -0.029732   0.605163
    19  C   -0.000001  -0.000000  -0.000000   0.000000   0.000000  -0.000000
    20  H   -0.000000  -0.000000   0.000000  -0.000000   0.000000   0.000000
    21  S   -0.000003   0.000000   0.000001   0.000000   0.000000  -0.000000
    22  N    0.000026  -0.000000  -0.000131   0.000104   0.000002  -0.000001
    23  C   -0.002011   0.003271  -0.055105  -0.004919  -0.006532   0.004733
    24  O    0.000642   0.000338  -0.003849   0.003372   0.003654   0.000326
    25  H    0.003152  -0.000391  -0.000411  -0.000034  -0.000073  -0.000003
    26  H    0.000226   0.005934   0.000009   0.000000  -0.000000   0.000000
              19         20         21         22         23         24
     1  C    0.000136  -0.000001  -0.008099  -0.012387  -0.062213  -0.000070
     2  H    0.000000   0.000000   0.001085   0.000781   0.001021   0.000002
     3  C   -0.000010  -0.000000   0.000191   0.001730   0.412090  -0.083099
     4  C    0.000017   0.000000   0.001287  -0.001118  -0.008450   0.003758
     5  H   -0.000000  -0.000000  -0.000041  -0.000045   0.006188  -0.000059
     6  C   -0.050046   0.003485   0.224925   0.512028   0.000769  -0.000002
     7  C   -0.000043   0.000001   0.001330  -0.002822   0.013374   0.003997
     8  C    0.000002   0.000000   0.000065   0.003366   0.456118  -0.076567
     9  C    0.567895  -0.019354  -0.106148   0.415260   0.000067  -0.000000
    10  H   -0.057542  -0.001016   0.005288  -0.044015  -0.000003  -0.000000
    11  C    0.000000   0.000000   0.000006  -0.000038  -0.056044  -0.008712
    12  H    0.000000  -0.000000   0.000000   0.000000  -0.002990   0.001274
    13  H   -0.000001  -0.000000  -0.000003   0.000026  -0.002011   0.000642
    14  H   -0.000000  -0.000000   0.000000  -0.000000   0.003271   0.000338
    15  C   -0.000000   0.000000   0.000001  -0.000131  -0.055105  -0.003849
    16  H    0.000000  -0.000000   0.000000   0.000104  -0.004919   0.003372
    17  H    0.000000   0.000000   0.000000   0.000002  -0.006532   0.003654
    18  H   -0.000000   0.000000  -0.000000  -0.000001   0.004733   0.000326
    19  C    5.234239   0.356118   0.317159  -0.061419  -0.000005   0.000000
    20  H    0.356118   0.563121  -0.032649   0.004334  -0.000000   0.000000
    21  S    0.317159  -0.032649  15.487135  -0.087901  -0.000051  -0.000000
    22  N   -0.061419   0.004334  -0.087901   6.657255   0.000049  -0.000034
    23  C   -0.000005  -0.000000  -0.000051   0.000049   4.779204   0.304303
    24  O    0.000000   0.000000  -0.000000  -0.000034   0.304303   8.105523
    25  H    0.000000   0.000000  -0.000000  -0.000002  -0.027647   0.298142
    26  H   -0.000020  -0.000000   0.001410  -0.000076   0.004557  -0.000057
              25         26
     1  C   -0.000059  -0.043967
     2  H   -0.000000  -0.005468
     3  C   -0.022458  -0.036159
     4  C   -0.000071   0.004486
     5  H    0.000006  -0.000188
     6  C    0.000000   0.000378
     7  C    0.000213   0.364972
     8  C    0.008962   0.000615
     9  C   -0.000000   0.000000
    10  H   -0.000000  -0.000000
    11  C    0.014707  -0.010708
    12  H    0.002462   0.000129
    13  H    0.003152   0.000226
    14  H   -0.000391   0.005934
    15  C   -0.000411   0.000009
    16  H   -0.000034   0.000000
    17  H   -0.000073  -0.000000
    18  H   -0.000003   0.000000
    19  C    0.000000  -0.000020
    20  H    0.000000  -0.000000
    21  S   -0.000000   0.001410
    22  N   -0.000002  -0.000076
    23  C   -0.027647   0.004557
    24  O    0.298142  -0.000057
    25  H    0.400989  -0.000014
    26  H   -0.000014   0.626578
          Atomic-Atomic Spin Densities.
               1          2          3          4          5          6
     1  C   -0.066469   0.005957  -0.000649   0.021866   0.000283  -0.074555
     2  H    0.005957   0.011593   0.000044   0.000206  -0.000028  -0.009501
     3  C   -0.000649   0.000044  -0.093940  -0.001005  -0.000036   0.001182
     4  C    0.021866   0.000206  -0.001005   0.187251   0.000951  -0.030560
     5  H    0.000283  -0.000028  -0.000036   0.000951  -0.009225   0.000407
     6  C   -0.074555  -0.009501   0.001182  -0.030560   0.000407   0.865417
     7  C    0.021293  -0.000651  -0.017069   0.005196   0.000043  -0.029065
     8  C    0.000058   0.000024   0.001004  -0.013505   0.000099   0.001102
     9  C   -0.000663  -0.000022   0.000070  -0.000368   0.000002  -0.012588
    10  H    0.000009   0.000000  -0.000003   0.000009  -0.000000   0.000808
    11  C   -0.000025   0.000000   0.000996   0.000007  -0.000000  -0.000023
    12  H   -0.000007  -0.000000   0.001709   0.000005   0.000000   0.000001
    13  H    0.000002   0.000000   0.001643  -0.000002  -0.000000  -0.000004
    14  H    0.000002  -0.000000   0.000256   0.000000   0.000000   0.000003
    15  C   -0.000034   0.000000  -0.000029   0.000046   0.000109  -0.000014
    16  H    0.000002   0.000000   0.000005   0.000102  -0.000009  -0.000010
    17  H   -0.000009  -0.000000  -0.000017   0.000082   0.000005   0.000001
    18  H    0.000004  -0.000000  -0.000001  -0.000098  -0.000047   0.000002
    19  C    0.000017  -0.000003  -0.000006   0.000018  -0.000000   0.001689
    20  H    0.000003   0.000000  -0.000000   0.000000  -0.000000   0.000489
    21  S    0.006742   0.001179  -0.000142   0.001349  -0.000018  -0.086168
    22  N    0.002994   0.000112  -0.000179   0.004258  -0.000049  -0.041187
    23  C   -0.001344   0.000014   0.014525  -0.007693  -0.000004   0.002080
    24  O    0.000005   0.000000  -0.000449   0.000198   0.000000  -0.000011
    25  H    0.000000   0.000000   0.000218  -0.000003  -0.000000  -0.000000
    26  H    0.000241   0.000003   0.000039   0.000023   0.000003   0.000265
               7          8          9         10         11         12
     1  C    0.021293   0.000058  -0.000663   0.000009  -0.000025  -0.000007
     2  H   -0.000651   0.000024  -0.000022   0.000000   0.000000  -0.000000
     3  C   -0.017069   0.001004   0.000070  -0.000003   0.000996   0.001709
     4  C    0.005196  -0.013505  -0.000368   0.000009   0.000007   0.000005
     5  H    0.000043   0.000099   0.000002  -0.000000  -0.000000   0.000000
     6  C   -0.029065   0.001102  -0.012588   0.000808  -0.000023   0.000001
     7  C    0.219804  -0.001069  -0.000428   0.000008   0.000234   0.000111
     8  C   -0.001069  -0.096161   0.000045  -0.000003   0.000001  -0.000015
     9  C   -0.000428   0.000045   0.115198  -0.007184  -0.000001   0.000000
    10  H    0.000008  -0.000003  -0.007184   0.002101   0.000000  -0.000000
    11  C    0.000234   0.000001  -0.000001   0.000000   0.006158  -0.000489
    12  H    0.000111  -0.000015   0.000000  -0.000000  -0.000489  -0.005201
    13  H    0.000063   0.000008  -0.000002   0.000000  -0.000099   0.001350
    14  H   -0.000099  -0.000002   0.000000  -0.000000  -0.000228   0.000053
    15  C    0.000005   0.002400  -0.000000   0.000000  -0.000001  -0.000000
    16  H   -0.000003   0.001616  -0.000001   0.000000   0.000000  -0.000000
    17  H    0.000006   0.001698   0.000000  -0.000000  -0.000000   0.000000
    18  H    0.000000   0.000246   0.000000  -0.000000  -0.000000   0.000000
    19  C    0.000043  -0.000002  -0.013142   0.003098   0.000000  -0.000000
    20  H    0.000003  -0.000000  -0.003406   0.000390   0.000000  -0.000000
    21  S    0.003591  -0.000036  -0.021080   0.000660   0.000006  -0.000000
    22  N    0.000922  -0.000501  -0.009673   0.001386   0.000002  -0.000000
    23  C   -0.008567   0.010205   0.000112  -0.000007  -0.001215  -0.000253
    24  O    0.000191  -0.000260  -0.000001   0.000000   0.000114   0.000020
    25  H    0.000007  -0.000086  -0.000000   0.000000   0.000002   0.000002
    26  H    0.001336  -0.000038   0.000002  -0.000000   0.000137   0.000006
              13         14         15         16         17         18
     1  C    0.000002   0.000002  -0.000034   0.000002  -0.000009   0.000004
     2  H    0.000000  -0.000000   0.000000   0.000000  -0.000000  -0.000000
     3  C    0.001643   0.000256  -0.000029   0.000005  -0.000017  -0.000001
     4  C   -0.000002   0.000000   0.000046   0.000102   0.000082  -0.000098
     5  H   -0.000000   0.000000   0.000109  -0.000009   0.000005  -0.000047
     6  C   -0.000004   0.000003  -0.000014  -0.000010   0.000001   0.000002
     7  C    0.000063  -0.000099   0.000005  -0.000003   0.000006   0.000000
     8  C    0.000008  -0.000002   0.002400   0.001616   0.001698   0.000246
     9  C   -0.000002   0.000000  -0.000000  -0.000001   0.000000   0.000000
    10  H    0.000000  -0.000000   0.000000   0.000000  -0.000000  -0.000000
    11  C   -0.000099  -0.000228  -0.000001   0.000000  -0.000000  -0.000000
    12  H    0.001350   0.000053  -0.000000  -0.000000   0.000000   0.000000
    13  H   -0.005877   0.000107   0.000000   0.000000  -0.000000  -0.000000
    14  H    0.000107  -0.000473  -0.000000  -0.000000   0.000000   0.000000
    15  C    0.000000  -0.000000   0.005785  -0.000533  -0.000753  -0.000220
    16  H    0.000000  -0.000000  -0.000533  -0.005378   0.001213   0.000107
    17  H   -0.000000   0.000000  -0.000753   0.001213  -0.004837   0.000045
    18  H   -0.000000   0.000000  -0.000220   0.000107   0.000045  -0.000436
    19  C    0.000000  -0.000000   0.000000   0.000000  -0.000000  -0.000000
    20  H    0.000000  -0.000000   0.000000   0.000000  -0.000000  -0.000000
    21  S    0.000002  -0.000001   0.000001   0.000000  -0.000000  -0.000000
    22  N    0.000000  -0.000000   0.000019   0.000015  -0.000000  -0.000001
    23  C   -0.000271   0.000028  -0.001105  -0.000339  -0.000217   0.000033
    24  O    0.000010  -0.000001   0.000063   0.000039   0.000012  -0.000002
    25  H    0.000002  -0.000000   0.000003   0.000000   0.000001  -0.000000
    26  H   -0.000008  -0.000060  -0.000000  -0.000000   0.000000  -0.000000
              19         20         21         22         23         24
     1  C    0.000017   0.000003   0.006742   0.002994  -0.001344   0.000005
     2  H   -0.000003   0.000000   0.001179   0.000112   0.000014   0.000000
     3  C   -0.000006  -0.000000  -0.000142  -0.000179   0.014525  -0.000449
     4  C    0.000018   0.000000   0.001349   0.004258  -0.007693   0.000198
     5  H   -0.000000  -0.000000  -0.000018  -0.000049  -0.000004   0.000000
     6  C    0.001689   0.000489  -0.086168  -0.041187   0.002080  -0.000011
     7  C    0.000043   0.000003   0.003591   0.000922  -0.008567   0.000191
     8  C   -0.000002  -0.000000  -0.000036  -0.000501   0.010205  -0.000260
     9  C   -0.013142  -0.003406  -0.021080  -0.009673   0.000112  -0.000001
    10  H    0.003098   0.000390   0.000660   0.001386  -0.000007   0.000000
    11  C    0.000000   0.000000   0.000006   0.000002  -0.001215   0.000114
    12  H   -0.000000  -0.000000  -0.000000  -0.000000  -0.000253   0.000020
    13  H    0.000000   0.000000   0.000002   0.000000  -0.000271   0.000010
    14  H   -0.000000  -0.000000  -0.000001  -0.000000   0.000028  -0.000001
    15  C    0.000000   0.000000   0.000001   0.000019  -0.001105   0.000063
    16  H    0.000000   0.000000   0.000000   0.000015  -0.000339   0.000039
    17  H   -0.000000  -0.000000  -0.000000  -0.000000  -0.000217   0.000012
    18  H   -0.000000  -0.000000  -0.000000  -0.000001   0.000033  -0.000002
    19  C   -0.009088  -0.000158   0.006359   0.001632  -0.000007   0.000000
    20  H   -0.000158   0.006772  -0.001127  -0.000271  -0.000000   0.000000
    21  S    0.006359  -0.001127   0.147231   0.004310  -0.000124   0.000001
    22  N    0.001632  -0.000271   0.004310   0.032863  -0.001029   0.000012
    23  C   -0.000007  -0.000000  -0.000124  -0.001029   0.214808  -0.030405
    24  O    0.000000   0.000000   0.000001   0.000012  -0.030405   0.067020
    25  H    0.000000   0.000000   0.000000   0.000000  -0.000204   0.000016
    26  H    0.000001  -0.000000  -0.000073  -0.000007  -0.000010   0.000000
              25         26
     1  C    0.000000   0.000241
     2  H    0.000000   0.000003
     3  C    0.000218   0.000039
     4  C   -0.000003   0.000023
     5  H   -0.000000   0.000003
     6  C   -0.000000   0.000265
     7  C    0.000007   0.001336
     8  C   -0.000086  -0.000038
     9  C   -0.000000   0.000002
    10  H    0.000000  -0.000000
    11  C    0.000002   0.000137
    12  H    0.000002   0.000006
    13  H    0.000002  -0.000008
    14  H   -0.000000  -0.000060
    15  C    0.000003  -0.000000
    16  H    0.000000  -0.000000
    17  H    0.000001   0.000000
    18  H   -0.000000  -0.000000
    19  C    0.000000   0.000001
    20  H    0.000000  -0.000000
    21  S    0.000000  -0.000073
    22  N    0.000000  -0.000007
    23  C   -0.000204  -0.000010
    24  O    0.000016   0.000000
    25  H   -0.001182   0.000000
    26  H    0.000000  -0.010734
 Mulliken charges and spin densities:
               1          2
     1  C   -0.119251  -0.084278
     2  H    0.101881   0.008927
     3  C    0.136551  -0.091832
     4  C   -0.091270   0.168333
     5  H    0.087561  -0.007513
     6  C   -0.008823   0.589758
     7  C   -0.106132   0.195904
     8  C    0.125098  -0.093171
     9  C    0.096427   0.046871
    10  H    0.102199   0.001272
    11  C   -0.423866   0.005577
    12  H    0.120141  -0.002709
    13  H    0.126091  -0.003075
    14  H    0.126893  -0.000414
    15  C   -0.361381   0.005742
    16  H    0.134234  -0.003172
    17  H    0.122868  -0.002771
    18  H    0.104002  -0.000369
    19  C   -0.306480  -0.009551
    20  H    0.125961   0.002694
    21  S    0.195009   0.062662
    22  N   -0.384948  -0.004371
    23  C    0.240225   0.189012
    24  O   -0.552883   0.036573
    25  H    0.322530  -0.001224
    26  H    0.087364  -0.008874
 Sum of Mulliken charges =  -0.00000   1.00000
 Mulliken charges and spin densities with hydrogens summed into heavy atoms:
               1          2
     1  C   -0.017370  -0.075351
     3  C    0.136551  -0.091832
     4  C   -0.003709   0.160820
     6  C   -0.008823   0.589758
     7  C   -0.018768   0.187030
     8  C    0.125098  -0.093171
     9  C    0.198626   0.048143
    11  C   -0.050742  -0.000621
    15  C   -0.000277  -0.000571
    19  C   -0.180519  -0.006857
    21  S    0.195009   0.062662
    22  N   -0.384948  -0.004371
    23  C    0.240225   0.189012
    24  O   -0.230353   0.035349
 Electronic spatial extent (au):  <R**2>=           9587.3211
 Charge=              0.0000 electrons
 Dipole moment (field-independent basis, Debye):
    X=             -0.2601    Y=             -2.0546    Z=             -1.2691  Tot=              2.4289
 Quadrupole moment (field-independent basis, Debye-Ang):
   XX=            -88.5743   YY=            -75.1218   ZZ=            -86.5432
   XY=             -5.2339   XZ=             -1.6636   YZ=              1.2016
 Traceless Quadrupole moment (field-independent basis, Debye-Ang):
   XX=             -5.1612   YY=              8.2913   ZZ=             -3.1301
   XY=             -5.2339   XZ=             -1.6636   YZ=              1.2016
 Octapole moment (field-independent basis, Debye-Ang**2):
  XXX=           -891.1322  YYY=            405.0343  ZZZ=           -318.4015  XYY=           -278.0527
  XXY=            137.4676  XXZ=           -110.5530  XZZ=           -287.4607  YZZ=            172.9669
  YYZ=           -132.7470  XYZ=             -0.3998
 Hexadecapole moment (field-independent basis, Debye-Ang**3):
 XXXX=          -6976.9528 YYYY=          -3414.3755 ZZZZ=          -2163.4199 XXXY=           1194.8852
 XXXZ=           -831.3577 YYYX=           1219.1621 YYYZ=           1038.6499 ZZZX=           -828.0324
 ZZZY=            979.2954 XXYY=          -1765.9243 XXZZ=          -1501.1839 YYZZ=          -1076.8040
 XXYZ=            325.9407 YYXZ=           -362.9793 ZZXY=            478.2156
 N-N= 9.472522283745D+02 E-N=-4.133094818840D+03  KE= 9.479475031062D+02
                          Isotropic Fermi Contact Couplings
        Atom                 a.u.       MegaHertz       Gauss      10(-4) cm-1
     1  C(13)              0.01500      16.86289       6.01710       5.62486
     2  H(1)               0.00665      29.73184      10.60906       9.91747
     3  C(13)             -0.01420     -15.96377      -5.69627      -5.32494
     4  C(13)              0.01867      20.99029       7.48986       7.00161
     5  H(1)              -0.00255     -11.39242      -4.06510      -3.80010
     6  C(13)              0.60883     684.44470     244.22689     228.30618
     7  C(13)              0.02119      23.82224       8.50037       7.94624
     8  C(13)             -0.01401     -15.74740      -5.61906      -5.25277
     9  C(13)              0.05861      65.88719      23.51019      21.97760
    10  H(1)               0.00014       0.62846       0.22425       0.20963
    11  C(13)              0.00179       2.01734       0.71984       0.67291
    12  H(1)              -0.00131      -5.86552      -2.09296      -1.95653
    13  H(1)              -0.00149      -6.65877      -2.37601      -2.22113
    14  H(1)              -0.00016      -0.72763      -0.25964      -0.24271
    15  C(13)              0.00185       2.08188       0.74287       0.69444
    16  H(1)              -0.00163      -7.27157      -2.59468      -2.42553
    17  H(1)              -0.00140      -6.23847      -2.22604      -2.08093
    18  H(1)              -0.00014      -0.64487      -0.23011      -0.21511
    19  C(13)             -0.00193      -2.16942      -0.77410      -0.72364
    20  H(1)               0.00139       6.21532       2.21778       2.07321
    21  S(33)              0.14880      51.10754      18.23644      17.04764
    22  N(14)              0.12720      41.09952      14.66533      13.70932
    23  C(13)              0.02147      24.14168       8.61435       8.05280
    24  O(17)              0.00974      -5.90505      -2.10707      -1.96971
    25  H(1)              -0.00068      -3.04220      -1.08553      -1.01477
    26  H(1)              -0.00298     -13.30569      -4.74780      -4.43830
 --------------------------------------------------------
       Center         ----  Spin Dipole Couplings  ----
                      3XX-RR        3YY-RR        3ZZ-RR
 --------------------------------------------------------
     1   Atom        0.000083     -0.002250      0.002167
     2   Atom        0.005507     -0.004095     -0.001413
     3   Atom        0.022617     -0.022061     -0.000556
     4   Atom       -0.060990      0.062961     -0.001971
     5   Atom       -0.012498      0.001076      0.011421
     6   Atom       -0.173739      0.024503      0.149235
     7   Atom       -0.063890      0.080692     -0.016802
     8   Atom        0.020445     -0.026338      0.005893
     9   Atom       -0.017372     -0.000169      0.017542
    10   Atom        0.004255     -0.002394     -0.001861
    11   Atom       -0.001037      0.000918      0.000120
    12   Atom       -0.000941      0.001352     -0.000411
    13   Atom       -0.000932      0.000154      0.000778
    14   Atom       -0.001361      0.001349      0.000012
    15   Atom        0.000154     -0.001475      0.001320
    16   Atom        0.000530     -0.000603      0.000074
    17   Atom       -0.000380     -0.001171      0.001551
    18   Atom        0.000147     -0.001351      0.001204
    19   Atom        0.025666     -0.028716      0.003050
    20   Atom        0.001061     -0.001460      0.000398
    21   Atom       -0.049338     -0.220064      0.269403
    22   Atom        0.006801     -0.083954      0.077153
    23   Atom       -0.064340      0.082310     -0.017970
    24   Atom       -0.067701      0.086756     -0.019055
    25   Atom       -0.005162      0.002115      0.003048
    26   Atom       -0.001628     -0.000976      0.002604
 --------------------------------------------------------
                        XY            XZ            YZ
 --------------------------------------------------------
     1   Atom        0.021116     -0.017171      0.019313
     2   Atom       -0.007269      0.007759     -0.002527
     3   Atom        0.032450     -0.023881      0.042932
     4   Atom       -0.068841      0.048585     -0.110826
     5   Atom       -0.000557      0.004334      0.004765
     6   Atom       -0.169355      0.238605     -0.272121
     7   Atom       -0.089117      0.057852     -0.122576
     8   Atom        0.036206     -0.022160      0.043221
     9   Atom       -0.011169      0.024176     -0.017146
    10   Atom       -0.004056      0.003553     -0.002334
    11   Atom        0.001242     -0.000268      0.002478
    12   Atom        0.000318     -0.000193      0.001612
    13   Atom        0.001153      0.000384      0.001597
    14   Atom        0.000653      0.000386      0.002086
    15   Atom        0.001122     -0.002473      0.000858
    16   Atom        0.000140     -0.002084      0.000564
    17   Atom        0.000421     -0.001409     -0.000071
    18   Atom        0.000259     -0.002028     -0.000213
    19   Atom       -0.005693      0.012541     -0.030017
    20   Atom       -0.000253      0.000395     -0.003873
    21   Atom        0.080990     -0.292315     -0.174999
    22   Atom       -0.024108     -0.009688     -0.080893
    23   Atom       -0.087146      0.063136     -0.135231
    24   Atom       -0.086088      0.059472     -0.125280
    25   Atom        0.002670      0.003627      0.006790
    26   Atom       -0.009722     -0.011495      0.000747
 --------------------------------------------------------


 ---------------------------------------------------------------------------------
              Anisotropic Spin Dipole Couplings in Principal Axis System
 ---------------------------------------------------------------------------------

       Atom             a.u.   MegaHertz   Gauss  10(-4) cm-1        Axes

              Baa    -0.0386    -5.180    -1.848    -1.728 -0.5752  0.6185 -0.5353
     1 C(13)  Bbb     0.0183     2.453     0.875     0.818 -0.6026  0.1221  0.7886
              Bcc     0.0203     2.727     0.973     0.910  0.5531  0.7762  0.3025
 
              Baa    -0.0086    -4.583    -1.635    -1.529  0.5783  0.7277 -0.3689
     2 H(1)   Bbb    -0.0051    -2.732    -0.975    -0.911 -0.1990  0.5643  0.8012
              Bcc     0.0137     7.315     2.610     2.440  0.7912 -0.3899  0.4711
 
              Baa    -0.0726    -9.743    -3.476    -3.250 -0.3896  0.7286 -0.5633
     3 C(13)  Bbb     0.0328     4.400     1.570     1.468 -0.1375  0.5588  0.8178
              Bcc     0.0398     5.342     1.906     1.782  0.9107  0.3961 -0.1175
 
              Baa    -0.0917   -12.304    -4.390    -4.104  0.8935  0.4443  0.0649
     4 C(13)  Bbb    -0.0842   -11.304    -4.033    -3.770 -0.2990  0.4808  0.8243
              Bcc     0.1759    23.607     8.424     7.875 -0.3350  0.7559 -0.5624
 
              Baa    -0.0134    -7.148    -2.551    -2.384  0.9767  0.1001 -0.1898
     5 H(1)   Bbb    -0.0004    -0.240    -0.086    -0.080 -0.1576  0.9350 -0.3178
              Bcc     0.0138     7.388     2.636     2.464  0.1456  0.3403  0.9290
 
              Baa    -0.3036   -40.736   -14.536   -13.588  0.9085  0.1433 -0.3926
     6 C(13)  Bbb    -0.1904   -25.547    -9.116    -8.522  0.1176  0.8137  0.5693
              Bcc     0.4939    66.283    23.651    22.110  0.4010 -0.5634  0.7223
 
              Baa    -0.1064   -14.275    -5.094    -4.762  0.8879  0.4571  0.0520
     7 C(13)  Bbb    -0.0993   -13.330    -4.757    -4.446 -0.2779  0.4429  0.8525
              Bcc     0.2057    27.605     9.850     9.208 -0.3666  0.7713 -0.5202
 
              Baa    -0.0751   -10.084    -3.598    -3.364 -0.4055  0.7559 -0.5140
     8 C(13)  Bbb     0.0348     4.668     1.666     1.557 -0.4078  0.3537  0.8418
              Bcc     0.0404     5.416     1.933     1.807  0.8181  0.5509  0.1648
 
              Baa    -0.0299    -4.017    -1.433    -1.340  0.9004  0.0931 -0.4249
     9 C(13)  Bbb    -0.0102    -1.375    -0.491    -0.459  0.1181  0.8877  0.4449
              Bcc     0.0402     5.392     1.924     1.799  0.4186 -0.4508  0.7884
 
              Baa    -0.0046    -2.467    -0.880    -0.823  0.2114  0.8636  0.4576
    10 H(1)   Bbb    -0.0034    -1.791    -0.639    -0.597 -0.5281 -0.2930  0.7970
              Bcc     0.0080     4.258     1.519     1.420  0.8224 -0.4102  0.3941
 
              Baa    -0.0027    -0.357    -0.127    -0.119 -0.5517  0.5956 -0.5839
    11 C(13)  Bbb    -0.0005    -0.069    -0.025    -0.023  0.8125  0.2256 -0.5376
              Bcc     0.0032     0.426     0.152     0.142  0.1884  0.7710  0.6084
 
              Baa    -0.0015    -0.825    -0.294    -0.275  0.4811 -0.4658  0.7427
    12 H(1)   Bbb    -0.0008    -0.411    -0.147    -0.137  0.8750  0.2027 -0.4396
              Bcc     0.0023     1.236     0.441     0.412  0.0542  0.8614  0.5051
 
              Baa    -0.0018    -0.975    -0.348    -0.325  0.7059 -0.6455  0.2917
    13 H(1)   Bbb    -0.0006    -0.316    -0.113    -0.105 -0.6404 -0.4056  0.6522
              Bcc     0.0024     1.292     0.461     0.431  0.3027  0.6471  0.6997
 
              Baa    -0.0016    -0.840    -0.300    -0.280  0.6528 -0.5313  0.5400
    14 H(1)   Bbb    -0.0014    -0.762    -0.272    -0.254  0.7381  0.2856 -0.6113
              Bcc     0.0030     1.601     0.571     0.534  0.1705  0.7976  0.5786
 
              Baa    -0.0031    -0.411    -0.147    -0.137 -0.5871  0.6650 -0.4617
    15 C(13)  Bbb    -0.0002    -0.029    -0.010    -0.010  0.5183  0.7469  0.4166
              Bcc     0.0033     0.440     0.157     0.147 -0.6218 -0.0053  0.7831
 
              Baa    -0.0020    -1.061    -0.379    -0.354  0.6085 -0.3515  0.7114
    16 H(1)   Bbb    -0.0004    -0.232    -0.083    -0.078  0.3017  0.9317  0.2022
              Bcc     0.0024     1.293     0.461     0.431  0.7339 -0.0916 -0.6730
 
              Baa    -0.0015    -0.799    -0.285    -0.266 -0.6169  0.7401 -0.2679
    17 H(1)   Bbb    -0.0008    -0.436    -0.155    -0.145  0.6302  0.6684  0.3951
              Bcc     0.0023     1.234     0.440     0.412 -0.4714 -0.0749  0.8787
 
              Baa    -0.0015    -0.788    -0.281    -0.263  0.6612 -0.5982  0.4528
    18 H(1)   Bbb    -0.0013    -0.705    -0.252    -0.235  0.4357  0.7975  0.4173
              Bcc     0.0028     1.493     0.533     0.498 -0.6107 -0.0787  0.7879
 
              Baa    -0.0468    -6.284    -2.242    -2.096 -0.0228  0.8540  0.5197
    19 C(13)  Bbb     0.0095     1.281     0.457     0.427  0.6459  0.4094 -0.6443
              Bcc     0.0373     5.003     1.785     1.669  0.7630 -0.3210  0.5610
 
              Baa    -0.0045    -2.408    -0.859    -0.803 -0.0083  0.7849  0.6195
    20 H(1)   Bbb     0.0010     0.520     0.185     0.173  0.9827  0.1210 -0.1402
              Bcc     0.0035     1.889     0.674     0.630  0.1850 -0.6077  0.7723
 
              Baa    -0.2781   -11.403    -4.069    -3.804  0.1563  0.9136  0.3754
    21 S(33)  Bbb    -0.2164    -8.871    -3.165    -2.959  0.8594 -0.3131  0.4043
              Bcc     0.4945    20.274     7.234     6.763 -0.4869 -0.2594  0.8340
 
              Baa    -0.1228    -4.735    -1.690    -1.579  0.1966  0.9056  0.3759
    22 N(14)  Bbb     0.0120     0.463     0.165     0.155  0.9805 -0.1804 -0.0782
              Bcc     0.1108     4.272     1.524     1.425  0.0030 -0.3840  0.9233
 
              Baa    -0.1126   -15.106    -5.390    -5.039 -0.2429  0.4774  0.8445
    23 C(13)  Bbb    -0.1049   -14.077    -5.023    -4.696  0.9021  0.4312  0.0157
              Bcc     0.2175    29.183    10.413     9.735 -0.3567  0.7656 -0.5354
 
              Baa    -0.1078     7.801     2.784     2.602  0.8894  0.1074 -0.4443
    24 O(17)  Bbb    -0.1015     7.347     2.622     2.451  0.2901  0.6185  0.7303
              Bcc     0.2093   -15.148    -5.405    -5.053 -0.3533  0.7784 -0.5189
 
              Baa    -0.0065    -3.488    -1.245    -1.163  0.9406 -0.0246 -0.3385
    25 H(1)   Bbb    -0.0041    -2.197    -0.784    -0.733 -0.2025  0.7599 -0.6177
              Bcc     0.0107     5.684     2.028     1.896  0.2724  0.6496  0.7098
 
              Baa    -0.0151    -8.070    -2.880    -2.692  0.7426  0.4859  0.4610
    26 H(1)   Bbb    -0.0002    -0.126    -0.045    -0.042 -0.1070  0.7655 -0.6345
              Bcc     0.0154     8.196     2.925     2.734  0.6612 -0.4218 -0.6204
 

 ---------------------------------------------------------------------------------

 Unable to Open any file for archive entry.
 1\1\GINC-EXP-5-19\FTS\UB3LYP\6-31G(d,p)\C11H12N1O1S1(2)\JCUZICK\05-May
 -2026\0\\# opt=(calcfc,ts,noeigen) freq=noraman ub3lyp/6-31g(d,p) nosy
 mm guess=mix empiricaldispersion=gd3\\CuL_subs\\0,2\C,4.7429172618,-2.
 16321988,2.163095765\H,5.7465217935,-1.7702975248,2.2838865377\C,3.279
 7748045,-3.8036319393,1.1031365267\C,3.8077380112,-2.0169477049,3.2159
 175307\H,4.0249831471,-1.3307803932,4.0286598861\C,4.1603147502,-0.372
 4948028,0.9265081122\C,4.495574155,-3.1362173037,1.1653383976\C,2.5840
 945649,-2.663168367,3.1822038972\C,2.6897393156,0.7384271223,-0.289442
 1436\H,1.6799725702,1.0734558068,-0.497627213\C,2.9686743906,-4.786022
 3246,-0.0002746059\H,2.7147099648,-5.7805555083,0.3908795176\H,2.12901
 94661,-4.4472494413,-0.6227666923\H,3.8264765921,-4.9104303353,-0.6647
 708912\C,1.5312737667,-2.4591148498,4.2387909116\H,0.6282129745,-2.019
 6694798,3.8018139734\H,1.2309573491,-3.4105166357,4.6903500516\H,1.891
 3608495,-1.7942699045,5.027621042\C,3.7883758353,1.0645074639,-1.02687
 88614\H,3.8443604158,1.6903633675,-1.9068538381\S,5.2044608626,0.31273
 68675,-0.3266627098\N,2.9183515157,-0.0896200595,0.8023684605\C,2.3239
 525478,-3.5400815637,2.1062876993\O,1.0967974374,-4.140477437,2.110563
 6755\H,0.9955026299,-4.6867644459,1.3212407412\H,5.2437660281,-3.31772
 6727,0.3995702295\\Version=ES64L-G16RevC.01\HF=-954.5025177\S2=0.77294
 8\S2-1=0.\S2A=0.750387\RMSD=9.238e-09\RMSF=1.518e-06\Dipole=-0.1023143
 ,-0.8083396,-0.4993209\Quadrupole=-3.8371934,6.1643764,-2.327183,-3.89
 12873,-1.2368318,0.8933832\PG=C01 [X(C11H12N1O1S1)]\\@
 The archive entry for this job was punched.


 WERE I TO AWAIT PERFECTION, MY BOOK WOULD NEVER BE FINISHED.
                                    -- HISTORY OF CHINESE WRITING

                                       TAI T'UNG, 13TH CENTURY
 Job cpu time:       0 days  1 hours 22 minutes 29.1 seconds.
 Elapsed time:       0 days  0 hours  5 minutes 13.2 seconds.
 File lengths (MBytes):  RWF=    434 Int=      0 D2E=      0 Chk=     10 Scr=      1
 Normal termination of Gaussian 16 at Tue May  5 15:31:47 2026.
 Link1:  Proceeding to internal job step number  2.
 ----------------------------------------------------------------------
 #N Geom=AllCheck Guess=TCheck SCRF=Check GenChk UB3LYP/6-31G(d,p) Freq
 ----------------------------------------------------------------------
 1/5=1,10=4,11=1,29=7,30=1,38=1,40=1/1,3;
 2/12=2,15=1,40=1/2;
 3/5=1,6=6,7=101,11=2,14=-4,25=1,30=1,70=2,71=2,74=-5,116=2,124=31,140=1/1,2,3;
 4/5=101/1;
 5/5=2,38=6,98=1/2;
 8/6=4,10=90,11=11/1;
 11/6=1,8=1,9=11,15=111,16=1,31=1/1,2,10;
 10/6=1,31=1/2;
 6/7=2,8=2,9=2,10=2,28=1/1;
 7/8=1,10=1,25=1,30=1/1,2,3,16;
 1/5=1,10=4,11=1,30=1/3;
 99//99;
 Structure from the checkpoint file:  "/scratch/jcuzick/job_48780924/Gau-1202240.chk"
 --------
 CuL_subs
 --------
 Charge =  0 Multiplicity = 2
 Redundant internal coordinates found in file.  (old form).
 C,0,4.7429172618,-2.16321988,2.163095765
 H,0,5.7465217935,-1.7702975248,2.2838865377
 C,0,3.2797748045,-3.8036319393,1.1031365267
 C,0,3.8077380112,-2.0169477049,3.2159175307
 H,0,4.0249831471,-1.3307803932,4.0286598861
 C,0,4.1603147502,-0.3724948028,0.9265081122
 C,0,4.495574155,-3.1362173037,1.1653383976
 C,0,2.5840945649,-2.663168367,3.1822038972
 C,0,2.6897393156,0.7384271223,-0.2894421436
 H,0,1.6799725702,1.0734558068,-0.497627213
 C,0,2.9686743906,-4.7860223246,-0.0002746059
 H,0,2.7147099648,-5.7805555083,0.3908795176
 H,0,2.1290194661,-4.4472494413,-0.6227666923
 H,0,3.8264765921,-4.9104303353,-0.6647708912
 C,0,1.5312737667,-2.4591148498,4.2387909116
 H,0,0.6282129745,-2.0196694798,3.8018139734
 H,0,1.2309573491,-3.4105166357,4.6903500516
 H,0,1.8913608495,-1.7942699045,5.027621042
 C,0,3.7883758353,1.0645074639,-1.0268788614
 H,0,3.8443604158,1.6903633675,-1.9068538381
 S,0,5.2044608626,0.3127368675,-0.3266627098
 N,0,2.9183515157,-0.0896200595,0.8023684605
 C,0,2.3239525478,-3.5400815637,2.1062876993
 O,0,1.0967974374,-4.140477437,2.1105636755
 H,0,0.9955026299,-4.6867644459,1.3212407412
 H,0,5.2437660281,-3.317726727,0.3995702295
 Recover connectivity data from disk.

 GradGradGradGradGradGradGradGradGradGradGradGradGradGradGradGradGradGrad
 Berny optimization.
 Initialization pass.
                           ----------------------------
                           !    Initial Parameters    !
                           ! (Angstroms and Degrees)  !
 --------------------------                            --------------------------
 ! Name  Definition              Value          Derivative Info.                !
 --------------------------------------------------------------------------------
 ! R1    R(1,2)                  1.0845         calculate D2E/DX2 analytically  !
 ! R2    R(1,4)                  1.4158         calculate D2E/DX2 analytically  !
 ! R3    R(1,6)                  2.2528         calculate D2E/DX2 analytically  !
 ! R4    R(1,7)                  1.4154         calculate D2E/DX2 analytically  !
 ! R5    R(3,7)                  1.3883         calculate D2E/DX2 analytically  !
 ! R6    R(3,11)                 1.5098         calculate D2E/DX2 analytically  !
 ! R7    R(3,23)                 1.4104         calculate D2E/DX2 analytically  !
 ! R8    R(4,5)                  1.0856         calculate D2E/DX2 analytically  !
 ! R9    R(4,8)                  1.3842         calculate D2E/DX2 analytically  !
 ! R10   R(6,21)                 1.7692         calculate D2E/DX2 analytically  !
 ! R11   R(6,22)                 1.2798         calculate D2E/DX2 analytically  !
 ! R12   R(7,26)                 1.0859         calculate D2E/DX2 analytically  !
 ! R13   R(8,15)                 1.5055         calculate D2E/DX2 analytically  !
 ! R14   R(8,23)                 1.4122         calculate D2E/DX2 analytically  !
 ! R15   R(9,10)                 1.0841         calculate D2E/DX2 analytically  !
 ! R16   R(9,19)                 1.3628         calculate D2E/DX2 analytically  !
 ! R17   R(9,22)                 1.3892         calculate D2E/DX2 analytically  !
 ! R18   R(11,12)                1.0985         calculate D2E/DX2 analytically  !
 ! R19   R(11,13)                1.0988         calculate D2E/DX2 analytically  !
 ! R20   R(11,14)                1.0922         calculate D2E/DX2 analytically  !
 ! R21   R(15,16)                1.0953         calculate D2E/DX2 analytically  !
 ! R22   R(15,17)                1.0951         calculate D2E/DX2 analytically  !
 ! R23   R(15,18)                1.0927         calculate D2E/DX2 analytically  !
 ! R24   R(19,20)                1.0813         calculate D2E/DX2 analytically  !
 ! R25   R(19,21)                1.7495         calculate D2E/DX2 analytically  !
 ! R26   R(23,24)                1.3662         calculate D2E/DX2 analytically  !
 ! R27   R(24,25)                0.9653         calculate D2E/DX2 analytically  !
 ! A1    A(2,1,4)              119.4066         calculate D2E/DX2 analytically  !
 ! A2    A(2,1,6)               90.7142         calculate D2E/DX2 analytically  !
 ! A3    A(2,1,7)              119.2928         calculate D2E/DX2 analytically  !
 ! A4    A(4,1,6)               98.9307         calculate D2E/DX2 analytically  !
 ! A5    A(4,1,7)              118.6723         calculate D2E/DX2 analytically  !
 ! A6    A(6,1,7)               96.563          calculate D2E/DX2 analytically  !
 ! A7    A(7,3,11)             121.7357         calculate D2E/DX2 analytically  !
 ! A8    A(7,3,23)             118.1487         calculate D2E/DX2 analytically  !
 ! A9    A(11,3,23)            120.1156         calculate D2E/DX2 analytically  !
 ! A10   A(1,4,5)              119.3301         calculate D2E/DX2 analytically  !
 ! A11   A(1,4,8)              121.17           calculate D2E/DX2 analytically  !
 ! A12   A(5,4,8)              119.3541         calculate D2E/DX2 analytically  !
 ! A13   A(1,6,21)             122.9583         calculate D2E/DX2 analytically  !
 ! A14   A(1,6,22)             118.6786         calculate D2E/DX2 analytically  !
 ! A15   A(21,6,22)            114.7339         calculate D2E/DX2 analytically  !
 ! A16   A(1,7,3)              121.0028         calculate D2E/DX2 analytically  !
 ! A17   A(1,7,26)             119.4466         calculate D2E/DX2 analytically  !
 ! A18   A(3,7,26)             119.4352         calculate D2E/DX2 analytically  !
 ! A19   A(4,8,15)             122.5365         calculate D2E/DX2 analytically  !
 ! A20   A(4,8,23)             118.1187         calculate D2E/DX2 analytically  !
 ! A21   A(15,8,23)            119.3442         calculate D2E/DX2 analytically  !
 ! A22   A(10,9,19)            124.9635         calculate D2E/DX2 analytically  !
 ! A23   A(10,9,22)            119.2362         calculate D2E/DX2 analytically  !
 ! A24   A(19,9,22)            115.8002         calculate D2E/DX2 analytically  !
 ! A25   A(3,11,12)            112.1184         calculate D2E/DX2 analytically  !
 ! A26   A(3,11,13)            111.771          calculate D2E/DX2 analytically  !
 ! A27   A(3,11,14)            110.9123         calculate D2E/DX2 analytically  !
 ! A28   A(12,11,13)           107.7109         calculate D2E/DX2 analytically  !
 ! A29   A(12,11,14)           107.164          calculate D2E/DX2 analytically  !
 ! A30   A(13,11,14)           106.8952         calculate D2E/DX2 analytically  !
 ! A31   A(8,15,16)            110.5475         calculate D2E/DX2 analytically  !
 ! A32   A(8,15,17)            111.3104         calculate D2E/DX2 analytically  !
 ! A33   A(8,15,18)            111.0192         calculate D2E/DX2 analytically  !
 ! A34   A(16,15,17)           106.6771         calculate D2E/DX2 analytically  !
 ! A35   A(16,15,18)           108.3982         calculate D2E/DX2 analytically  !
 ! A36   A(17,15,18)           108.7418         calculate D2E/DX2 analytically  !
 ! A37   A(9,19,20)            128.3613         calculate D2E/DX2 analytically  !
 ! A38   A(9,19,21)            109.4594         calculate D2E/DX2 analytically  !
 ! A39   A(20,19,21)           122.1765         calculate D2E/DX2 analytically  !
 ! A40   A(6,21,19)             88.4084         calculate D2E/DX2 analytically  !
 ! A41   A(6,22,9)             111.572          calculate D2E/DX2 analytically  !
 ! A42   A(3,23,8)             122.213          calculate D2E/DX2 analytically  !
 ! A43   A(3,23,24)            121.9262         calculate D2E/DX2 analytically  !
 ! A44   A(8,23,24)            115.8479         calculate D2E/DX2 analytically  !
 ! A45   A(23,24,25)           109.9028         calculate D2E/DX2 analytically  !
 ! D1    D(2,1,4,5)             13.6398         calculate D2E/DX2 analytically  !
 ! D2    D(2,1,4,8)           -170.7778         calculate D2E/DX2 analytically  !
 ! D3    D(6,1,4,5)            -82.2753         calculate D2E/DX2 analytically  !
 ! D4    D(6,1,4,8)             93.3071         calculate D2E/DX2 analytically  !
 ! D5    D(7,1,4,5)            175.1446         calculate D2E/DX2 analytically  !
 ! D6    D(7,1,4,8)             -9.2729         calculate D2E/DX2 analytically  !
 ! D7    D(2,1,6,21)            42.9265         calculate D2E/DX2 analytically  !
 ! D8    D(2,1,6,22)          -159.699          calculate D2E/DX2 analytically  !
 ! D9    D(4,1,6,21)           162.8621         calculate D2E/DX2 analytically  !
 ! D10   D(4,1,6,22)           -39.7633         calculate D2E/DX2 analytically  !
 ! D11   D(7,1,6,21)           -76.6756         calculate D2E/DX2 analytically  !
 ! D12   D(7,1,6,22)            80.6989         calculate D2E/DX2 analytically  !
 ! D13   D(2,1,7,3)            170.6099         calculate D2E/DX2 analytically  !
 ! D14   D(2,1,7,26)           -13.3187         calculate D2E/DX2 analytically  !
 ! D15   D(4,1,7,3)              9.0836         calculate D2E/DX2 analytically  !
 ! D16   D(4,1,7,26)          -174.845          calculate D2E/DX2 analytically  !
 ! D17   D(6,1,7,3)            -94.863          calculate D2E/DX2 analytically  !
 ! D18   D(6,1,7,26)            81.2083         calculate D2E/DX2 analytically  !
 ! D19   D(11,3,7,1)           176.4241         calculate D2E/DX2 analytically  !
 ! D20   D(11,3,7,26)            0.3523         calculate D2E/DX2 analytically  !
 ! D21   D(23,3,7,1)            -3.4703         calculate D2E/DX2 analytically  !
 ! D22   D(23,3,7,26)         -179.5421         calculate D2E/DX2 analytically  !
 ! D23   D(7,3,11,12)          122.5327         calculate D2E/DX2 analytically  !
 ! D24   D(7,3,11,13)         -116.408          calculate D2E/DX2 analytically  !
 ! D25   D(7,3,11,14)            2.7762         calculate D2E/DX2 analytically  !
 ! D26   D(23,3,11,12)         -57.5749         calculate D2E/DX2 analytically  !
 ! D27   D(23,3,11,13)          63.4844         calculate D2E/DX2 analytically  !
 ! D28   D(23,3,11,14)        -177.3315         calculate D2E/DX2 analytically  !
 ! D29   D(7,3,23,8)            -2.2049         calculate D2E/DX2 analytically  !
 ! D30   D(7,3,23,24)          179.1577         calculate D2E/DX2 analytically  !
 ! D31   D(11,3,23,8)          177.8989         calculate D2E/DX2 analytically  !
 ! D32   D(11,3,23,24)          -0.7385         calculate D2E/DX2 analytically  !
 ! D33   D(1,4,8,15)          -175.8836         calculate D2E/DX2 analytically  !
 ! D34   D(1,4,8,23)             3.8125         calculate D2E/DX2 analytically  !
 ! D35   D(5,4,8,15)            -0.3022         calculate D2E/DX2 analytically  !
 ! D36   D(5,4,8,23)           179.3939         calculate D2E/DX2 analytically  !
 ! D37   D(1,6,21,19)          159.5117         calculate D2E/DX2 analytically  !
 ! D38   D(22,6,21,19)           1.3262         calculate D2E/DX2 analytically  !
 ! D39   D(1,6,22,9)          -160.9693         calculate D2E/DX2 analytically  !
 ! D40   D(21,6,22,9)           -1.7871         calculate D2E/DX2 analytically  !
 ! D41   D(4,8,15,16)          117.3364         calculate D2E/DX2 analytically  !
 ! D42   D(4,8,15,17)         -124.2922         calculate D2E/DX2 analytically  !
 ! D43   D(4,8,15,18)           -3.0027         calculate D2E/DX2 analytically  !
 ! D44   D(23,8,15,16)         -62.3561         calculate D2E/DX2 analytically  !
 ! D45   D(23,8,15,17)          56.0153         calculate D2E/DX2 analytically  !
 ! D46   D(23,8,15,18)         177.3048         calculate D2E/DX2 analytically  !
 ! D47   D(4,8,23,3)             2.0389         calculate D2E/DX2 analytically  !
 ! D48   D(4,8,23,24)         -179.2461         calculate D2E/DX2 analytically  !
 ! D49   D(15,8,23,3)         -178.2551         calculate D2E/DX2 analytically  !
 ! D50   D(15,8,23,24)           0.4599         calculate D2E/DX2 analytically  !
 ! D51   D(10,9,19,20)           0.311          calculate D2E/DX2 analytically  !
 ! D52   D(10,9,19,21)         179.7052         calculate D2E/DX2 analytically  !
 ! D53   D(22,9,19,20)        -179.8275         calculate D2E/DX2 analytically  !
 ! D54   D(22,9,19,21)          -0.4334         calculate D2E/DX2 analytically  !
 ! D55   D(10,9,22,6)         -178.6779         calculate D2E/DX2 analytically  !
 ! D56   D(19,9,22,6)            1.4522         calculate D2E/DX2 analytically  !
 ! D57   D(9,19,21,6)           -0.4399         calculate D2E/DX2 analytically  !
 ! D58   D(20,19,21,6)         178.9988         calculate D2E/DX2 analytically  !
 ! D59   D(3,23,24,25)          -3.8288         calculate D2E/DX2 analytically  !
 ! D60   D(8,23,24,25)         177.4522         calculate D2E/DX2 analytically  !
 --------------------------------------------------------------------------------
 Trust Radius=3.00D-01 FncErr=1.00D-07 GrdErr=1.00D-07 EigMax=2.50D+02 EigMin=1.00D-04
 Number of steps in this run=      2 maximum allowed number of steps=      2.
 Search for a saddle point of order  1.
 GradGradGradGradGradGradGradGradGradGradGradGradGradGradGradGradGradGrad

                          Input orientation:                          
 ---------------------------------------------------------------------
 Center     Atomic      Atomic             Coordinates (Angstroms)
 Number     Number       Type             X           Y           Z
 ---------------------------------------------------------------------
      1          6           0        4.742917   -2.163220    2.163096
      2          1           0        5.746522   -1.770298    2.283887
      3          6           0        3.279775   -3.803632    1.103137
      4          6           0        3.807738   -2.016948    3.215918
      5          1           0        4.024983   -1.330780    4.028660
      6          6           0        4.160315   -0.372495    0.926508
      7          6           0        4.495574   -3.136217    1.165338
      8          6           0        2.584095   -2.663168    3.182204
      9          6           0        2.689739    0.738427   -0.289442
     10          1           0        1.679973    1.073456   -0.497627
     11          6           0        2.968674   -4.786022   -0.000275
     12          1           0        2.714710   -5.780556    0.390880
     13          1           0        2.129019   -4.447249   -0.622767
     14          1           0        3.826477   -4.910430   -0.664771
     15          6           0        1.531274   -2.459115    4.238791
     16          1           0        0.628213   -2.019669    3.801814
     17          1           0        1.230957   -3.410517    4.690350
     18          1           0        1.891361   -1.794270    5.027621
     19          6           0        3.788376    1.064507   -1.026879
     20          1           0        3.844360    1.690363   -1.906854
     21         16           0        5.204461    0.312737   -0.326663
     22          7           0        2.918352   -0.089620    0.802368
     23          6           0        2.323953   -3.540082    2.106288
     24          8           0        1.096797   -4.140477    2.110564
     25          1           0        0.995503   -4.686764    1.321241
     26          1           0        5.243766   -3.317727    0.399570
 ---------------------------------------------------------------------
                    Distance matrix (angstroms):
                    1          2          3          4          5
     1  C    0.000000
     2  H    1.084528   0.000000
     3  C    2.440338   3.407853   0.000000
     4  C    1.415765   2.165271   2.816883   0.000000
     5  H    2.165344   2.490202   3.902437   1.085620   0.000000
     6  C    2.252836   2.512445   3.546724   2.840762   3.249611
     7  C    1.415423   2.163737   1.388337   2.435315   3.417553
     8  C    2.439066   3.406632   2.471265   1.384211   2.137266
     9  C    4.318569   4.718012   4.787245   4.596690   4.970966
    10  H    5.190101   5.688636   5.376597   5.279052   5.636196
    11  C    3.834997   4.693445   1.509765   4.326164   5.411728
    12  H    4.509933   5.371920   2.175968   4.831179   5.894978
    13  H    4.450874   5.357334   2.171917   4.843548   5.911246
    14  H    4.047698   4.716099   2.156243   4.840696   5.906064
    15  C    3.835455   4.697280   3.833707   2.534575   2.745156
    16  H    4.431342   5.344471   4.182841   3.233058   3.473338
    17  H    4.502957   5.373240   4.149734   3.279601   3.545380
    18  H    4.058695   4.731904   4.622424   2.646574   2.401060
    19  C    4.637382   4.778245   5.338017   5.243764   5.599273
    20  H    5.676442   5.758185   6.289895   6.323629   6.662601
    21  S    3.541508   3.383464   4.763742   4.464094   4.802203
    22  N    3.079032   3.608063   3.743658   3.214159   3.629610
    23  C    2.783948   3.857157   1.410449   2.398507   3.386744
    24  O    4.148071   5.221851   2.427708   3.616681   4.488626
    25  H    4.595662   5.657265   2.458738   4.315830   5.269772
    26  H    2.166508   2.489568   2.142048   3.418481   4.313198
                    6          7          8          9         10
     6  C    0.000000
     7  C    2.794208   0.000000
     8  C    3.580477   2.818737   0.000000
     9  C    2.208002   4.515561   4.861516   0.000000
    10  H    3.204845   5.330517   5.321743   1.084073   0.000000
    11  C    4.664564   2.532180   3.844812   5.539040   6.020099
    12  H    5.623504   3.280821   4.186485   6.554433   6.988390
    13  H    4.809370   3.242947   4.227037   5.226543   5.540351
    14  H    4.820423   2.635303   4.625248   5.774308   6.359427
    15  C    4.715618   4.323385   1.505472   5.663145   5.910569
    16  H    4.843172   4.811877   2.150228   5.347463   5.399890
    17  H    5.654840   4.812346   2.159633   6.643802   6.871880
    18  H    4.897828   4.847677   2.154165   5.943326   6.228716
    19  C    2.453372   4.790828   5.749977   1.362771   2.173833
    20  H    3.518970   5.758327   6.814691   2.203487   2.655385
    21  S    1.769243   3.824117   5.294759   2.550769   3.609701
    22  N    1.279805   3.449802   3.521150   1.389236   2.139233
    23  C    3.846779   2.400923   1.412178   4.917210   5.336648
    24  O    4.998482   3.667925   2.354338   5.665792   5.858998
    25  H    5.365144   3.831319   3.175177   5.907406   6.079220
    26  H    3.182125   1.085881   3.904529   4.842538   5.726087
                   11         12         13         14         15
    11  C    0.000000
    12  H    1.098452   0.000000
    13  H    1.098765   1.774322   0.000000
    14  H    1.092180   1.762822   1.760017   0.000000
    15  C    5.044829   5.219091   5.286277   5.943216   0.000000
    16  H    5.252270   5.489281   5.265214   6.207718   1.095253
    17  H    5.187835   5.128748   5.487307   6.137082   1.095108
    18  H    5.949027   6.169907   6.246732   6.771887   1.092673
    19  C    5.996209   7.072318   5.770289   5.986022   6.725898
    20  H    6.807749   7.897488   6.500890   6.716663   7.767721
    21  S    5.576972   6.621325   5.674812   5.412452   6.482193
    22  N    4.764763   5.709425   4.652203   5.120293   4.398578
    23  C    2.530936   2.848691   2.882480   3.437179   2.518809
    24  O    2.894182   2.874858   2.937803   3.968181   2.746835
    25  H    2.376902   2.240006   2.263049   3.465355   3.709659
    26  H    2.737117   3.530117   3.467368   2.382905   5.409199
                   16         17         18         19         20
    16  H    0.000000
    17  H    1.757058   0.000000
    18  H    1.774528   1.778240   0.000000
    19  C    6.543321   7.697593   6.959040   0.000000
    20  H    7.529730   8.739105   8.002738   1.081289   0.000000
    21  S    6.589877   7.404172   6.639613   1.749502   2.498946
    22  N    4.238691   5.384427   4.670471   2.331330   3.371308
    23  C    2.839365   2.808701   3.430624   5.758777   6.765685
    24  O    2.752767   2.684425   3.826911   6.646804   7.595225
    25  H    3.660811   3.610422   4.786057   6.811089   7.694436
    26  H    5.879077   5.875546   5.914254   4.832897   5.688488
                   21         22         23         24         25
    21  S    0.000000
    22  N    2.581259   0.000000
    23  C    5.390806   3.736201   0.000000
    24  O    6.530244   4.630214   1.366164   0.000000
    25  H    6.739876   5.010021   1.922488   0.965257   0.000000
    26  H    3.702597   3.998809   3.389342   4.560895   4.557574
                   26
    26  H    0.000000
 Symmetry turned off by external request.
 Stoichiometry    C11H12NOS(2)
 Framework group  C1[X(C11H12NOS)]
 Deg. of freedom    72
 Full point group                 C1      NOp   1
 Rotational constants (GHZ):           1.0110811           0.3888269           0.3608723
 Standard basis: 6-31G(d,p) (6D, 7F)
   274 basis functions,   500 primitive gaussians,   274 cartesian basis functions
    55 alpha electrons       54 beta electrons
       nuclear repulsion energy       947.2752397771 Hartrees.
 NAtoms=   26 NActive=   26 NUniq=   26 SFac= 1.00D+00 NAtFMM=   60 NAOKFM=F Big=F
 Integral buffers will be    131072 words long.
 Raffenetti 2 integral format.
 Two-electron integral symmetry is turned off.
 Nuclear repulsion after empirical dispersion term =      947.2522283745 Hartrees.
 One-electron integrals computed using PRISM.
 NBasis=   274 RedAO= T EigKep=  4.38D-04  NBF=   274
 NBsUse=   274 1.00D-06 EigRej= -1.00D+00 NBFU=   274
 Initial guess from the checkpoint file:  "/scratch/jcuzick/job_48780924/Gau-1202240.chk"
 B after Tr=     0.000000    0.000000    0.000000
         Rot=    1.000000    0.000000    0.000000    0.000000 Ang=   0.00 deg.
 Initial guess <Sx>= 0.0000 <Sy>= 0.0000 <Sz>= 0.5000 <S**2>= 0.7729 S= 0.5114
 Requested convergence on RMS density matrix=1.00D-08 within 128 cycles.
 Requested convergence on MAX density matrix=1.00D-06.
 Requested convergence on             energy=1.00D-06.
 No special actions if energy rises.
 SCF Done:  E(UB3LYP) =  -954.502517684     A.U. after    1 cycles
            NFock=  1  Conv=0.36D-08     -V/T= 2.0069
 <Sx>= 0.0000 <Sy>= 0.0000 <Sz>= 0.5000 <S**2>= 0.7729 S= 0.5114
 <L.S>= 0.000000000000E+00
 Annihilation of the first spin contaminant:
 S**2 before annihilation     0.7729,   after     0.7504
 DoSCS=F DFT=T ScalE2(SS,OS)=  1.000000  1.000000
 Range of M.O.s used for correlation:     1   274
 NBasis=   274 NAE=    55 NBE=    54 NFC=     0 NFV=     0
 NROrb=    274 NOA=    55 NOB=    54 NVA=   219 NVB=   220
 Symmetrizing basis deriv contribution to polar:
 IMax=3 JMax=2 DiffMx= 0.00D+00
 G2DrvN: will do    27 centers at a time, making    1 passes.
 Calling FoFCou, ICntrl=  3107 FMM=F I1Cent=   0 AccDes= 0.00D+00.
 End of G2Drv F.D. properties file   721 does not exist.
 End of G2Drv F.D. properties file   722 does not exist.
 End of G2Drv F.D. properties file   788 does not exist.
          IDoAtm=11111111111111111111111111
          Differentiating once with respect to electric field.
                with respect to dipole field.
          Differentiating once with respect to nuclear coordinates.
 Keep R1 and R2 ints in memory in canonical form, NReq=1437104452.
          There are    81 degrees of freedom in the 1st order CPHF.  IDoFFX=6 NUNeed=     3.
     78 vectors produced by pass  0 Test12= 2.95D-14 1.23D-09 XBig12= 4.06D+02 9.58D+00.
 AX will form    78 AO Fock derivatives at one time.
     78 vectors produced by pass  1 Test12= 2.95D-14 1.23D-09 XBig12= 1.33D+02 1.67D+00.
     78 vectors produced by pass  2 Test12= 2.95D-14 1.23D-09 XBig12= 1.71D+00 1.69D-01.
     78 vectors produced by pass  3 Test12= 2.95D-14 1.23D-09 XBig12= 1.08D-02 1.22D-02.
     78 vectors produced by pass  4 Test12= 2.95D-14 1.23D-09 XBig12= 9.71D-05 1.22D-03.
     78 vectors produced by pass  5 Test12= 2.95D-14 1.23D-09 XBig12= 6.51D-07 1.19D-04.
     55 vectors produced by pass  6 Test12= 2.95D-14 1.23D-09 XBig12= 2.40D-09 4.32D-06.
     15 vectors produced by pass  7 Test12= 2.95D-14 1.23D-09 XBig12= 7.85D-12 2.23D-07.
      3 vectors produced by pass  8 Test12= 2.95D-14 1.23D-09 XBig12= 3.48D-14 1.58D-08.
 InvSVY:  IOpt=1 It=  1 EMax= 3.20D-14
 Solved reduced A of dimension   541 with    81 vectors.
 Isotropic polarizability for W=    0.000000      150.53 Bohr**3.
 End of Minotr F.D. properties file   721 does not exist.
 End of Minotr F.D. properties file   722 does not exist.
 End of Minotr F.D. properties file   788 does not exist.

 **********************************************************************

            Population analysis using the SCF Density.

 **********************************************************************

 Alpha  occ. eigenvalues --  -88.89809 -19.18659 -14.32079 -10.25066 -10.23518
 Alpha  occ. eigenvalues --  -10.21087 -10.20678 -10.20186 -10.19987 -10.19893
 Alpha  occ. eigenvalues --  -10.19270 -10.19245 -10.18721 -10.17619  -7.95953
 Alpha  occ. eigenvalues --   -5.92386  -5.92005  -5.91628  -1.06762  -0.94546
 Alpha  occ. eigenvalues --   -0.85602  -0.78818  -0.77955  -0.75626  -0.71781
 Alpha  occ. eigenvalues --   -0.69957  -0.68131  -0.61317  -0.58465  -0.57397
 Alpha  occ. eigenvalues --   -0.54123  -0.52084  -0.48970  -0.48439  -0.46713
 Alpha  occ. eigenvalues --   -0.44340  -0.42679  -0.41545  -0.41141  -0.40965
 Alpha  occ. eigenvalues --   -0.40534  -0.39172  -0.39020  -0.38058  -0.37651
 Alpha  occ. eigenvalues --   -0.35693  -0.35189  -0.34989  -0.33381  -0.28716
 Alpha  occ. eigenvalues --   -0.26764  -0.24846  -0.24555  -0.23021  -0.17217
 Alpha virt. eigenvalues --   -0.01162   0.00641   0.01646   0.03317   0.05927
 Alpha virt. eigenvalues --    0.06983   0.10072   0.12418   0.12778   0.13248
 Alpha virt. eigenvalues --    0.13468   0.13688   0.14998   0.16116   0.17291
 Alpha virt. eigenvalues --    0.17899   0.18460   0.18900   0.20914   0.22749
 Alpha virt. eigenvalues --    0.24408   0.25419   0.25555   0.28035   0.31042
 Alpha virt. eigenvalues --    0.32356   0.32588   0.36569   0.36613   0.37903
 Alpha virt. eigenvalues --    0.38635   0.40691   0.43422   0.46292   0.48987
 Alpha virt. eigenvalues --    0.51551   0.51887   0.52314   0.53501   0.54020
 Alpha virt. eigenvalues --    0.54732   0.55825   0.56492   0.56894   0.58350
 Alpha virt. eigenvalues --    0.58839   0.59724   0.60681   0.62510   0.63741
 Alpha virt. eigenvalues --    0.64951   0.65922   0.67021   0.68530   0.70569
 Alpha virt. eigenvalues --    0.71500   0.72900   0.73594   0.75535   0.76405
 Alpha virt. eigenvalues --    0.77468   0.78522   0.79948   0.81253   0.81954
 Alpha virt. eigenvalues --    0.82060   0.82602   0.83690   0.84101   0.84476
 Alpha virt. eigenvalues --    0.85768   0.86853   0.88196   0.89598   0.89785
 Alpha virt. eigenvalues --    0.90272   0.91582   0.92753   0.93401   0.94042
 Alpha virt. eigenvalues --    0.97221   0.98917   0.99339   1.00997   1.02015
 Alpha virt. eigenvalues --    1.04689   1.05708   1.06019   1.09557   1.10265
 Alpha virt. eigenvalues --    1.12298   1.16677   1.19518   1.23093   1.23940
 Alpha virt. eigenvalues --    1.25069   1.27988   1.30420   1.31257   1.32811
 Alpha virt. eigenvalues --    1.34418   1.36820   1.38529   1.38920   1.41963
 Alpha virt. eigenvalues --    1.43004   1.44027   1.45278   1.55192   1.57693
 Alpha virt. eigenvalues --    1.58601   1.59229   1.66375   1.68877   1.69650
 Alpha virt. eigenvalues --    1.72731   1.73432   1.73928   1.76014   1.77326
 Alpha virt. eigenvalues --    1.79230   1.81832   1.83689   1.85746   1.88609
 Alpha virt. eigenvalues --    1.89329   1.89409   1.92636   1.92990   1.94046
 Alpha virt. eigenvalues --    1.96892   1.98027   1.99506   2.02749   2.02880
 Alpha virt. eigenvalues --    2.05139   2.07416   2.08029   2.10527   2.11131
 Alpha virt. eigenvalues --    2.12347   2.13104   2.14164   2.16154   2.18234
 Alpha virt. eigenvalues --    2.20054   2.21177   2.23918   2.27309   2.29123
 Alpha virt. eigenvalues --    2.30714   2.31727   2.32470   2.32973   2.35647
 Alpha virt. eigenvalues --    2.36439   2.39149   2.39902   2.43345   2.43799
 Alpha virt. eigenvalues --    2.45432   2.46230   2.49181   2.51476   2.51954
 Alpha virt. eigenvalues --    2.53334   2.54534   2.55064   2.55175   2.57917
 Alpha virt. eigenvalues --    2.58621   2.59817   2.65268   2.67836   2.68399
 Alpha virt. eigenvalues --    2.68829   2.70051   2.71331   2.74760   2.77375
 Alpha virt. eigenvalues --    2.80209   2.82245   2.84169   2.85241   2.87667
 Alpha virt. eigenvalues --    2.91110   2.91800   2.98875   3.07584   3.11288
 Alpha virt. eigenvalues --    3.13616   3.17643   3.18688   3.20635   3.25011
 Alpha virt. eigenvalues --    3.29102   3.31905   3.40794   3.41199   3.43904
 Alpha virt. eigenvalues --    3.45926   3.48363   3.51261   3.60737   3.77597
 Alpha virt. eigenvalues --    3.94801   4.00368   4.08134   4.13549   4.17490
 Alpha virt. eigenvalues --    4.24508   4.31092   4.39234   4.44205   4.50684
 Alpha virt. eigenvalues --    4.52542   4.53975   4.59112   4.85288
  Beta  occ. eigenvalues --  -88.89737 -19.18529 -14.32003 -10.24783 -10.22265
  Beta  occ. eigenvalues --  -10.20964 -10.20695 -10.20236 -10.20012 -10.19974
  Beta  occ. eigenvalues --  -10.19359 -10.19003 -10.18492 -10.17613  -7.95874
  Beta  occ. eigenvalues --   -5.92252  -5.91885  -5.91589  -1.06461  -0.94099
  Beta  occ. eigenvalues --   -0.85331  -0.78798  -0.77615  -0.75364  -0.71093
  Beta  occ. eigenvalues --   -0.69691  -0.67817  -0.61197  -0.58295  -0.56996
  Beta  occ. eigenvalues --   -0.53942  -0.50979  -0.48832  -0.47884  -0.46604
  Beta  occ. eigenvalues --   -0.44072  -0.42555  -0.41459  -0.41067  -0.40854
  Beta  occ. eigenvalues --   -0.40057  -0.38917  -0.38779  -0.37607  -0.37499
  Beta  occ. eigenvalues --   -0.35092  -0.34909  -0.34050  -0.33268  -0.27148
  Beta  occ. eigenvalues --   -0.26724  -0.24067  -0.23065  -0.22280
  Beta virt. eigenvalues --   -0.08190  -0.00322   0.01612   0.02847   0.03706
  Beta virt. eigenvalues --    0.05974   0.07623   0.10268   0.12771   0.13237
  Beta virt. eigenvalues --    0.13401   0.13575   0.13938   0.15036   0.16133
  Beta virt. eigenvalues --    0.17345   0.18042   0.18546   0.19006   0.21199
  Beta virt. eigenvalues --    0.22867   0.24550   0.25578   0.25986   0.28661
  Beta virt. eigenvalues --    0.31210   0.32491   0.32772   0.36639   0.36898
  Beta virt. eigenvalues --    0.38079   0.39347   0.41025   0.43728   0.46439
  Beta virt. eigenvalues --    0.49063   0.51904   0.52304   0.52844   0.54022
  Beta virt. eigenvalues --    0.54131   0.55100   0.55968   0.56642   0.57139
  Beta virt. eigenvalues --    0.58520   0.59229   0.60049   0.60914   0.62936
  Beta virt. eigenvalues --    0.64718   0.65389   0.66463   0.67289   0.68643
  Beta virt. eigenvalues --    0.71266   0.71451   0.73100   0.74104   0.75585
  Beta virt. eigenvalues --    0.76465   0.77655   0.78811   0.80163   0.81453
  Beta virt. eigenvalues --    0.82056   0.82234   0.82956   0.83840   0.84184
  Beta virt. eigenvalues --    0.84636   0.85856   0.87088   0.88332   0.89695
  Beta virt. eigenvalues --    0.89839   0.90601   0.91706   0.92944   0.93592
  Beta virt. eigenvalues --    0.94435   0.97627   0.99413   0.99704   1.01169
  Beta virt. eigenvalues --    1.02337   1.04956   1.05806   1.06238   1.09747
  Beta virt. eigenvalues --    1.10483   1.12520   1.16958   1.19707   1.23331
  Beta virt. eigenvalues --    1.24100   1.25383   1.28297   1.30603   1.31845
  Beta virt. eigenvalues --    1.33160   1.34598   1.37012   1.38998   1.39241
  Beta virt. eigenvalues --    1.42541   1.43471   1.44386   1.45943   1.55723
  Beta virt. eigenvalues --    1.57885   1.58836   1.59995   1.67302   1.69183
  Beta virt. eigenvalues --    1.69887   1.72915   1.73753   1.74073   1.76172
  Beta virt. eigenvalues --    1.77649   1.79341   1.82086   1.83696   1.86663
  Beta virt. eigenvalues --    1.88959   1.89660   1.89910   1.93013   1.93084
  Beta virt. eigenvalues --    1.94141   1.97435   1.98397   1.99857   2.02787
  Beta virt. eigenvalues --    2.03085   2.05125   2.07571   2.08067   2.10528
  Beta virt. eigenvalues --    2.11306   2.12428   2.13422   2.14219   2.16202
  Beta virt. eigenvalues --    2.18392   2.20295   2.22665   2.24603   2.28794
  Beta virt. eigenvalues --    2.29621   2.31024   2.31817   2.32929   2.33560
  Beta virt. eigenvalues --    2.36235   2.37156   2.39265   2.40046   2.43493
  Beta virt. eigenvalues --    2.44172   2.45598   2.46658   2.49412   2.51878
  Beta virt. eigenvalues --    2.52337   2.53518   2.54857   2.55322   2.55561
  Beta virt. eigenvalues --    2.58099   2.58897   2.60086   2.65354   2.68021
  Beta virt. eigenvalues --    2.68651   2.69075   2.70249   2.71499   2.74806
  Beta virt. eigenvalues --    2.77419   2.80275   2.82319   2.84940   2.85362
  Beta virt. eigenvalues --    2.87670   2.91661   2.91950   2.99057   3.07643
  Beta virt. eigenvalues --    3.11613   3.13699   3.17674   3.18798   3.20621
  Beta virt. eigenvalues --    3.25070   3.29240   3.31970   3.40768   3.41290
  Beta virt. eigenvalues --    3.43869   3.45982   3.48368   3.51295   3.60888
  Beta virt. eigenvalues --    3.77747   3.95158   4.00686   4.08358   4.14474
  Beta virt. eigenvalues --    4.17537   4.24671   4.32221   4.39654   4.44504
  Beta virt. eigenvalues --    4.50799   4.52812   4.54041   4.59184   4.85497
          Condensed to atoms (all electrons):
               1          2          3          4          5          6
     1  C    4.971275   0.372223  -0.015156   0.458062  -0.046427   0.044626
     2  H    0.372223   0.616227   0.003952  -0.035392  -0.005447  -0.015514
     3  C   -0.015156   0.003952   4.922334  -0.047291   0.000406  -0.003365
     4  C    0.458062  -0.035392  -0.047291   4.892992   0.366600  -0.020686
     5  H   -0.046427  -0.005447   0.000406   0.366600   0.627811   0.000756
     6  C    0.044626  -0.015514  -0.003365  -0.020686   0.000756   5.415555
     7  C    0.458643  -0.038562   0.544125  -0.031187   0.004754  -0.017731
     8  C   -0.012434   0.003595  -0.061989   0.573291  -0.037083  -0.003843
     9  C    0.000949  -0.000044  -0.000032  -0.000077   0.000004  -0.090500
    10  H   -0.000007   0.000000   0.000004   0.000003  -0.000000   0.008021
    11  C    0.007384  -0.000171   0.329004   0.000153   0.000007  -0.000057
    12  H   -0.000102   0.000004  -0.034083  -0.000003  -0.000000  -0.000003
    13  H   -0.000275   0.000001  -0.031317   0.000064   0.000000   0.000027
    14  H    0.000100  -0.000009  -0.024731   0.000007  -0.000000  -0.000002
    15  C    0.007395  -0.000163   0.009658  -0.061679  -0.011340  -0.000004
    16  H   -0.000304   0.000001  -0.000208   0.000876   0.000194   0.000010
    17  H   -0.000112   0.000004  -0.000002   0.001072   0.000119  -0.000003
    18  H    0.000069  -0.000007  -0.000146  -0.005446   0.006226  -0.000001
    19  C    0.000136   0.000000  -0.000010   0.000017  -0.000000  -0.050046
    20  H   -0.000001   0.000000  -0.000000   0.000000  -0.000000   0.003485
    21  S   -0.008099   0.001085   0.000191   0.001287  -0.000041   0.224925
    22  N   -0.012387   0.000781   0.001730  -0.001118  -0.000045   0.512028
    23  C   -0.062213   0.001021   0.412090  -0.008450   0.006188   0.000769
    24  O   -0.000070   0.000002  -0.083099   0.003758  -0.000059  -0.000002
    25  H   -0.000059  -0.000000  -0.022458  -0.000071   0.000006   0.000000
    26  H   -0.043967  -0.005468  -0.036159   0.004486  -0.000188   0.000378
               7          8          9         10         11         12
     1  C    0.458643  -0.012434   0.000949  -0.000007   0.007384  -0.000102
     2  H   -0.038562   0.003595  -0.000044   0.000000  -0.000171   0.000004
     3  C    0.544125  -0.061989  -0.000032   0.000004   0.329004  -0.034083
     4  C   -0.031187   0.573291  -0.000077   0.000003   0.000153  -0.000003
     5  H    0.004754  -0.037083   0.000004  -0.000000   0.000007  -0.000000
     6  C   -0.017731  -0.003843  -0.090500   0.008021  -0.000057  -0.000003
     7  C    4.906650  -0.042199  -0.000066   0.000001  -0.057093   0.000238
     8  C   -0.042199   4.787131  -0.000057   0.000006   0.007687  -0.000029
     9  C   -0.000066  -0.000057   4.754380   0.381300  -0.000003  -0.000000
    10  H    0.000001   0.000006   0.381300   0.605763   0.000000   0.000000
    11  C   -0.057093   0.007687  -0.000003   0.000000   5.083833   0.370936
    12  H    0.000238  -0.000029  -0.000000   0.000000   0.370936   0.609779
    13  H    0.000085  -0.000246   0.000001  -0.000000   0.369032  -0.042752
    14  H   -0.002469  -0.000137   0.000000   0.000000   0.374109  -0.025004
    15  C   -0.000136   0.347494  -0.000002   0.000000  -0.000173   0.000003
    16  H    0.000065  -0.025707   0.000001  -0.000001  -0.000001   0.000001
    17  H   -0.000013  -0.026821  -0.000000   0.000000   0.000006  -0.000002
    18  H    0.000007  -0.026318   0.000000  -0.000000   0.000001   0.000000
    19  C   -0.000043   0.000002   0.567895  -0.057542   0.000000   0.000000
    20  H    0.000001   0.000000  -0.019354  -0.001016   0.000000  -0.000000
    21  S    0.001330   0.000065  -0.106148   0.005288   0.000006   0.000000
    22  N   -0.002822   0.003366   0.415260  -0.044015  -0.000038   0.000000
    23  C    0.013374   0.456118   0.000067  -0.000003  -0.056044  -0.002990
    24  O    0.003997  -0.076567  -0.000000  -0.000000  -0.008712   0.001274
    25  H    0.000213   0.008962  -0.000000  -0.000000   0.014707   0.002462
    26  H    0.364972   0.000615   0.000000  -0.000000  -0.010708   0.000129
              13         14         15         16         17         18
     1  C   -0.000275   0.000100   0.007395  -0.000304  -0.000112   0.000069
     2  H    0.000001  -0.000009  -0.000163   0.000001   0.000004  -0.000007
     3  C   -0.031317  -0.024731   0.009658  -0.000208  -0.000002  -0.000146
     4  C    0.000064   0.000007  -0.061679   0.000876   0.001072  -0.005446
     5  H    0.000000  -0.000000  -0.011340   0.000194   0.000119   0.006226
     6  C    0.000027  -0.000002  -0.000004   0.000010  -0.000003  -0.000001
     7  C    0.000085  -0.002469  -0.000136   0.000065  -0.000013   0.000007
     8  C   -0.000246  -0.000137   0.347494  -0.025707  -0.026821  -0.026318
     9  C    0.000001   0.000000  -0.000002   0.000001  -0.000000   0.000000
    10  H   -0.000000   0.000000   0.000000  -0.000001   0.000000  -0.000000
    11  C    0.369032   0.374109  -0.000173  -0.000001   0.000006   0.000001
    12  H   -0.042752  -0.025004   0.000003   0.000001  -0.000002   0.000000
    13  H    0.602455  -0.025195  -0.000001  -0.000001   0.000001  -0.000000
    14  H   -0.025195   0.567284   0.000002  -0.000000   0.000000  -0.000000
    15  C   -0.000001   0.000002   5.011301   0.374364   0.374721   0.369426
    16  H   -0.000001  -0.000000   0.374364   0.579784  -0.033530  -0.028300
    17  H    0.000001   0.000000   0.374721  -0.033530   0.594373  -0.029732
    18  H   -0.000000  -0.000000   0.369426  -0.028300  -0.029732   0.605163
    19  C   -0.000001  -0.000000  -0.000000   0.000000   0.000000  -0.000000
    20  H   -0.000000  -0.000000   0.000000  -0.000000   0.000000   0.000000
    21  S   -0.000003   0.000000   0.000001   0.000000   0.000000  -0.000000
    22  N    0.000026  -0.000000  -0.000131   0.000104   0.000002  -0.000001
    23  C   -0.002011   0.003271  -0.055105  -0.004919  -0.006532   0.004733
    24  O    0.000642   0.000338  -0.003849   0.003372   0.003654   0.000326
    25  H    0.003152  -0.000391  -0.000411  -0.000034  -0.000073  -0.000003
    26  H    0.000226   0.005934   0.000009   0.000000  -0.000000   0.000000
              19         20         21         22         23         24
     1  C    0.000136  -0.000001  -0.008099  -0.012387  -0.062213  -0.000070
     2  H    0.000000   0.000000   0.001085   0.000781   0.001021   0.000002
     3  C   -0.000010  -0.000000   0.000191   0.001730   0.412090  -0.083099
     4  C    0.000017   0.000000   0.001287  -0.001118  -0.008450   0.003758
     5  H   -0.000000  -0.000000  -0.000041  -0.000045   0.006188  -0.000059
     6  C   -0.050046   0.003485   0.224925   0.512028   0.000769  -0.000002
     7  C   -0.000043   0.000001   0.001330  -0.002822   0.013374   0.003997
     8  C    0.000002   0.000000   0.000065   0.003366   0.456118  -0.076567
     9  C    0.567895  -0.019354  -0.106148   0.415260   0.000067  -0.000000
    10  H   -0.057542  -0.001016   0.005288  -0.044015  -0.000003  -0.000000
    11  C    0.000000   0.000000   0.000006  -0.000038  -0.056044  -0.008712
    12  H    0.000000  -0.000000   0.000000   0.000000  -0.002990   0.001274
    13  H   -0.000001  -0.000000  -0.000003   0.000026  -0.002011   0.000642
    14  H   -0.000000  -0.000000   0.000000  -0.000000   0.003271   0.000338
    15  C   -0.000000   0.000000   0.000001  -0.000131  -0.055105  -0.003849
    16  H    0.000000  -0.000000   0.000000   0.000104  -0.004919   0.003372
    17  H    0.000000   0.000000   0.000000   0.000002  -0.006532   0.003654
    18  H   -0.000000   0.000000  -0.000000  -0.000001   0.004733   0.000326
    19  C    5.234238   0.356118   0.317159  -0.061419  -0.000005   0.000000
    20  H    0.356118   0.563121  -0.032649   0.004334  -0.000000   0.000000
    21  S    0.317159  -0.032649  15.487135  -0.087901  -0.000051  -0.000000
    22  N   -0.061419   0.004334  -0.087901   6.657255   0.000049  -0.000034
    23  C   -0.000005  -0.000000  -0.000051   0.000049   4.779204   0.304303
    24  O    0.000000   0.000000  -0.000000  -0.000034   0.304303   8.105523
    25  H    0.000000   0.000000  -0.000000  -0.000002  -0.027647   0.298142
    26  H   -0.000020  -0.000000   0.001410  -0.000076   0.004557  -0.000057
              25         26
     1  C   -0.000059  -0.043967
     2  H   -0.000000  -0.005468
     3  C   -0.022458  -0.036159
     4  C   -0.000071   0.004486
     5  H    0.000006  -0.000188
     6  C    0.000000   0.000378
     7  C    0.000213   0.364972
     8  C    0.008962   0.000615
     9  C   -0.000000   0.000000
    10  H   -0.000000  -0.000000
    11  C    0.014707  -0.010708
    12  H    0.002462   0.000129
    13  H    0.003152   0.000226
    14  H   -0.000391   0.005934
    15  C   -0.000411   0.000009
    16  H   -0.000034   0.000000
    17  H   -0.000073  -0.000000
    18  H   -0.000003   0.000000
    19  C    0.000000  -0.000020
    20  H    0.000000  -0.000000
    21  S   -0.000000   0.001410
    22  N   -0.000002  -0.000076
    23  C   -0.027647   0.004557
    24  O    0.298142  -0.000057
    25  H    0.400989  -0.000014
    26  H   -0.000014   0.626578
          Atomic-Atomic Spin Densities.
               1          2          3          4          5          6
     1  C   -0.066469   0.005957  -0.000649   0.021866   0.000283  -0.074555
     2  H    0.005957   0.011593   0.000044   0.000206  -0.000028  -0.009501
     3  C   -0.000649   0.000044  -0.093941  -0.001005  -0.000036   0.001182
     4  C    0.021866   0.000206  -0.001005   0.187251   0.000951  -0.030560
     5  H    0.000283  -0.000028  -0.000036   0.000951  -0.009225   0.000407
     6  C   -0.074555  -0.009501   0.001182  -0.030560   0.000407   0.865417
     7  C    0.021293  -0.000651  -0.017069   0.005196   0.000043  -0.029065
     8  C    0.000058   0.000024   0.001004  -0.013505   0.000099   0.001102
     9  C   -0.000663  -0.000022   0.000070  -0.000368   0.000002  -0.012588
    10  H    0.000009   0.000000  -0.000003   0.000009  -0.000000   0.000808
    11  C   -0.000025   0.000000   0.000996   0.000007  -0.000000  -0.000023
    12  H   -0.000007  -0.000000   0.001709   0.000005   0.000000   0.000001
    13  H    0.000002   0.000000   0.001643  -0.000002  -0.000000  -0.000004
    14  H    0.000002  -0.000000   0.000256   0.000000   0.000000   0.000003
    15  C   -0.000034   0.000000  -0.000029   0.000046   0.000109  -0.000014
    16  H    0.000002   0.000000   0.000005   0.000102  -0.000009  -0.000010
    17  H   -0.000009  -0.000000  -0.000017   0.000082   0.000005   0.000001
    18  H    0.000004  -0.000000  -0.000001  -0.000098  -0.000047   0.000002
    19  C    0.000017  -0.000003  -0.000006   0.000018  -0.000000   0.001689
    20  H    0.000003   0.000000  -0.000000   0.000000  -0.000000   0.000489
    21  S    0.006742   0.001179  -0.000142   0.001349  -0.000018  -0.086168
    22  N    0.002994   0.000112  -0.000179   0.004258  -0.000049  -0.041187
    23  C   -0.001344   0.000014   0.014525  -0.007693  -0.000004   0.002080
    24  O    0.000005   0.000000  -0.000449   0.000198   0.000000  -0.000011
    25  H    0.000000   0.000000   0.000218  -0.000003  -0.000000  -0.000000
    26  H    0.000241   0.000003   0.000039   0.000023   0.000003   0.000265
               7          8          9         10         11         12
     1  C    0.021293   0.000058  -0.000663   0.000009  -0.000025  -0.000007
     2  H   -0.000651   0.000024  -0.000022   0.000000   0.000000  -0.000000
     3  C   -0.017069   0.001004   0.000070  -0.000003   0.000996   0.001709
     4  C    0.005196  -0.013505  -0.000368   0.000009   0.000007   0.000005
     5  H    0.000043   0.000099   0.000002  -0.000000  -0.000000   0.000000
     6  C   -0.029065   0.001102  -0.012588   0.000808  -0.000023   0.000001
     7  C    0.219805  -0.001069  -0.000428   0.000008   0.000234   0.000111
     8  C   -0.001069  -0.096162   0.000045  -0.000003   0.000001  -0.000015
     9  C   -0.000428   0.000045   0.115197  -0.007184  -0.000001   0.000000
    10  H    0.000008  -0.000003  -0.007184   0.002101   0.000000  -0.000000
    11  C    0.000234   0.000001  -0.000001   0.000000   0.006158  -0.000489
    12  H    0.000111  -0.000015   0.000000  -0.000000  -0.000489  -0.005201
    13  H    0.000063   0.000008  -0.000002   0.000000  -0.000099   0.001350
    14  H   -0.000099  -0.000002   0.000000  -0.000000  -0.000228   0.000053
    15  C    0.000005   0.002400  -0.000000   0.000000  -0.000001  -0.000000
    16  H   -0.000003   0.001616  -0.000001   0.000000   0.000000  -0.000000
    17  H    0.000006   0.001698   0.000000  -0.000000  -0.000000   0.000000
    18  H    0.000000   0.000246   0.000000  -0.000000  -0.000000   0.000000
    19  C    0.000043  -0.000002  -0.013142   0.003098   0.000000  -0.000000
    20  H    0.000003  -0.000000  -0.003406   0.000390   0.000000  -0.000000
    21  S    0.003591  -0.000036  -0.021080   0.000660   0.000006  -0.000000
    22  N    0.000922  -0.000501  -0.009673   0.001386   0.000002  -0.000000
    23  C   -0.008567   0.010205   0.000112  -0.000007  -0.001215  -0.000253
    24  O    0.000191  -0.000260  -0.000001   0.000000   0.000114   0.000020
    25  H    0.000007  -0.000086  -0.000000   0.000000   0.000002   0.000002
    26  H    0.001337  -0.000038   0.000002  -0.000000   0.000137   0.000006
              13         14         15         16         17         18
     1  C    0.000002   0.000002  -0.000034   0.000002  -0.000009   0.000004
     2  H    0.000000  -0.000000   0.000000   0.000000  -0.000000  -0.000000
     3  C    0.001643   0.000256  -0.000029   0.000005  -0.000017  -0.000001
     4  C   -0.000002   0.000000   0.000046   0.000102   0.000082  -0.000098
     5  H   -0.000000   0.000000   0.000109  -0.000009   0.000005  -0.000047
     6  C   -0.000004   0.000003  -0.000014  -0.000010   0.000001   0.000002
     7  C    0.000063  -0.000099   0.000005  -0.000003   0.000006   0.000000
     8  C    0.000008  -0.000002   0.002400   0.001616   0.001698   0.000246
     9  C   -0.000002   0.000000  -0.000000  -0.000001   0.000000   0.000000
    10  H    0.000000  -0.000000   0.000000   0.000000  -0.000000  -0.000000
    11  C   -0.000099  -0.000228  -0.000001   0.000000  -0.000000  -0.000000
    12  H    0.001350   0.000053  -0.000000  -0.000000   0.000000   0.000000
    13  H   -0.005877   0.000107   0.000000   0.000000  -0.000000  -0.000000
    14  H    0.000107  -0.000473  -0.000000  -0.000000   0.000000   0.000000
    15  C    0.000000  -0.000000   0.005785  -0.000533  -0.000753  -0.000220
    16  H    0.000000  -0.000000  -0.000533  -0.005378   0.001213   0.000107
    17  H   -0.000000   0.000000  -0.000753   0.001213  -0.004837   0.000045
    18  H   -0.000000   0.000000  -0.000220   0.000107   0.000045  -0.000436
    19  C    0.000000  -0.000000   0.000000   0.000000  -0.000000  -0.000000
    20  H    0.000000  -0.000000   0.000000   0.000000  -0.000000  -0.000000
    21  S    0.000002  -0.000001   0.000001   0.000000  -0.000000  -0.000000
    22  N    0.000000  -0.000000   0.000019   0.000015  -0.000000  -0.000001
    23  C   -0.000271   0.000028  -0.001105  -0.000339  -0.000217   0.000033
    24  O    0.000010  -0.000001   0.000063   0.000039   0.000012  -0.000002
    25  H    0.000002  -0.000000   0.000003   0.000000   0.000001  -0.000000
    26  H   -0.000008  -0.000060  -0.000000  -0.000000   0.000000  -0.000000
              19         20         21         22         23         24
     1  C    0.000017   0.000003   0.006742   0.002994  -0.001344   0.000005
     2  H   -0.000003   0.000000   0.001179   0.000112   0.000014   0.000000
     3  C   -0.000006  -0.000000  -0.000142  -0.000179   0.014525  -0.000449
     4  C    0.000018   0.000000   0.001349   0.004258  -0.007693   0.000198
     5  H   -0.000000  -0.000000  -0.000018  -0.000049  -0.000004   0.000000
     6  C    0.001689   0.000489  -0.086168  -0.041187   0.002080  -0.000011
     7  C    0.000043   0.000003   0.003591   0.000922  -0.008567   0.000191
     8  C   -0.000002  -0.000000  -0.000036  -0.000501   0.010205  -0.000260
     9  C   -0.013142  -0.003406  -0.021080  -0.009673   0.000112  -0.000001
    10  H    0.003098   0.000390   0.000660   0.001386  -0.000007   0.000000
    11  C    0.000000   0.000000   0.000006   0.000002  -0.001215   0.000114
    12  H   -0.000000  -0.000000  -0.000000  -0.000000  -0.000253   0.000020
    13  H    0.000000   0.000000   0.000002   0.000000  -0.000271   0.000010
    14  H   -0.000000  -0.000000  -0.000001  -0.000000   0.000028  -0.000001
    15  C    0.000000   0.000000   0.000001   0.000019  -0.001105   0.000063
    16  H    0.000000   0.000000   0.000000   0.000015  -0.000339   0.000039
    17  H   -0.000000  -0.000000  -0.000000  -0.000000  -0.000217   0.000012
    18  H   -0.000000  -0.000000  -0.000000  -0.000001   0.000033  -0.000002
    19  C   -0.009088  -0.000158   0.006359   0.001632  -0.000007   0.000000
    20  H   -0.000158   0.006772  -0.001127  -0.000271  -0.000000   0.000000
    21  S    0.006359  -0.001127   0.147231   0.004310  -0.000124   0.000001
    22  N    0.001632  -0.000271   0.004310   0.032863  -0.001029   0.000012
    23  C   -0.000007  -0.000000  -0.000124  -0.001029   0.214809  -0.030405
    24  O    0.000000   0.000000   0.000001   0.000012  -0.030405   0.067021
    25  H    0.000000   0.000000   0.000000   0.000000  -0.000204   0.000016
    26  H    0.000001  -0.000000  -0.000073  -0.000007  -0.000010   0.000000
              25         26
     1  C    0.000000   0.000241
     2  H    0.000000   0.000003
     3  C    0.000218   0.000039
     4  C   -0.000003   0.000023
     5  H   -0.000000   0.000003
     6  C   -0.000000   0.000265
     7  C    0.000007   0.001337
     8  C   -0.000086  -0.000038
     9  C   -0.000000   0.000002
    10  H    0.000000  -0.000000
    11  C    0.000002   0.000137
    12  H    0.000002   0.000006
    13  H    0.000002  -0.000008
    14  H   -0.000000  -0.000060
    15  C    0.000003  -0.000000
    16  H    0.000000  -0.000000
    17  H    0.000001   0.000000
    18  H   -0.000000  -0.000000
    19  C    0.000000   0.000001
    20  H    0.000000  -0.000000
    21  S    0.000000  -0.000073
    22  N    0.000000  -0.000007
    23  C   -0.000204  -0.000010
    24  O    0.000016   0.000000
    25  H   -0.001182   0.000000
    26  H    0.000000  -0.010735
 Mulliken charges and spin densities:
               1          2
     1  C   -0.119250  -0.084278
     2  H    0.101881   0.008927
     3  C    0.136550  -0.091833
     4  C   -0.091270   0.168334
     5  H    0.087561  -0.007513
     6  C   -0.008823   0.589758
     7  C   -0.106132   0.195905
     8  C    0.125098  -0.093172
     9  C    0.096426   0.046871
    10  H    0.102199   0.001272
    11  C   -0.423867   0.005578
    12  H    0.120141  -0.002709
    13  H    0.126091  -0.003075
    14  H    0.126893  -0.000414
    15  C   -0.361381   0.005742
    16  H    0.134233  -0.003172
    17  H    0.122868  -0.002771
    18  H    0.104002  -0.000369
    19  C   -0.306479  -0.009551
    20  H    0.125961   0.002694
    21  S    0.195009   0.062662
    22  N   -0.384947  -0.004370
    23  C    0.240225   0.189012
    24  O   -0.552883   0.036573
    25  H    0.322530  -0.001224
    26  H    0.087364  -0.008874
 Sum of Mulliken charges =   0.00000   1.00000
 Mulliken charges and spin densities with hydrogens summed into heavy atoms:
               1          2
     1  C   -0.017370  -0.075351
     3  C    0.136550  -0.091833
     4  C   -0.003709   0.160820
     6  C   -0.008823   0.589758
     7  C   -0.018768   0.187031
     8  C    0.125098  -0.093172
     9  C    0.198625   0.048143
    11  C   -0.050741  -0.000621
    15  C   -0.000277  -0.000571
    19  C   -0.180518  -0.006857
    21  S    0.195009   0.062662
    22  N   -0.384947  -0.004370
    23  C    0.240225   0.189012
    24  O   -0.230353   0.035349
 APT charges:
               1
     1  C   -0.107785
     2  H    0.045086
     3  C   -0.065925
     4  C    0.021207
     5  H    0.023023
     6  C    0.586025
     7  C   -0.008043
     8  C   -0.006532
     9  C    0.121320
    10  H    0.028022
    11  C    0.087811
    12  H   -0.033170
    13  H   -0.033365
    14  H    0.011229
    15  C    0.088804
    16  H   -0.013004
    17  H   -0.019535
    18  H   -0.014517
    19  C   -0.093881
    20  H    0.071434
    21  S   -0.214245
    22  N   -0.562800
    23  C    0.504288
    24  O   -0.732949
    25  H    0.291768
    26  H    0.025733
 Sum of APT charges =   0.00000
 APT charges with hydrogens summed into heavy atoms:
               1
     1  C   -0.062700
     3  C   -0.065925
     4  C    0.044230
     6  C    0.586025
     7  C    0.017690
     8  C   -0.006532
     9  C    0.149342
    11  C    0.032506
    15  C    0.041748
    19  C   -0.022446
    21  S   -0.214245
    22  N   -0.562800
    23  C    0.504288
    24  O   -0.441181
 Electronic spatial extent (au):  <R**2>=           9587.3211
 Charge=              0.0000 electrons
 Dipole moment (field-independent basis, Debye):
    X=             -0.2601    Y=             -2.0546    Z=             -1.2691  Tot=              2.4289
 Quadrupole moment (field-independent basis, Debye-Ang):
   XX=            -88.5742   YY=            -75.1218   ZZ=            -86.5432
   XY=             -5.2339   XZ=             -1.6636   YZ=              1.2016
 Traceless Quadrupole moment (field-independent basis, Debye-Ang):
   XX=             -5.1611   YY=              8.2913   ZZ=             -3.1301
   XY=             -5.2339   XZ=             -1.6636   YZ=              1.2016
 Octapole moment (field-independent basis, Debye-Ang**2):
  XXX=           -891.1319  YYY=            405.0344  ZZZ=           -318.4015  XYY=           -278.0527
  XXY=            137.4676  XXZ=           -110.5529  XZZ=           -287.4606  YZZ=            172.9669
  YYZ=           -132.7470  XYZ=             -0.3999
 Hexadecapole moment (field-independent basis, Debye-Ang**3):
 XXXX=          -6976.9516 YYYY=          -3414.3755 ZZZZ=          -2163.4196 XXXY=           1194.8850
 XXXZ=           -831.3573 YYYX=           1219.1622 YYYZ=           1038.6500 ZZZX=           -828.0320
 ZZZY=            979.2952 XXYY=          -1765.9242 XXZZ=          -1501.1834 YYZZ=          -1076.8038
 XXYZ=            325.9404 YYXZ=           -362.9792 ZZXY=            478.2153
 N-N= 9.472522283745D+02 E-N=-4.133094823236D+03  KE= 9.479475041772D+02
  Exact polarizability:     144.700      25.379     160.123     -23.169     -25.177     146.761
 Approx polarizability:     272.862      42.858     226.534     -37.222     -23.590     224.458
                          Isotropic Fermi Contact Couplings
        Atom                 a.u.       MegaHertz       Gauss      10(-4) cm-1
     1  C(13)              0.01500      16.86273       6.01704       5.62480
     2  H(1)               0.00665      29.73190      10.60908       9.91750
     3  C(13)             -0.01420     -15.96399      -5.69635      -5.32501
     4  C(13)              0.01867      20.99049       7.48993       7.00167
     5  H(1)              -0.00255     -11.39252      -4.06514      -3.80014
     6  C(13)              0.60883     684.44464     244.22687     228.30616
     7  C(13)              0.02119      23.82245       8.50044       7.94631
     8  C(13)             -0.01401     -15.74761      -5.61914      -5.25284
     9  C(13)              0.05861      65.88715      23.51017      21.97759
    10  H(1)               0.00014       0.62847       0.22425       0.20964
    11  C(13)              0.00179       2.01740       0.71986       0.67293
    12  H(1)              -0.00131      -5.86559      -2.09299      -1.95655
    13  H(1)              -0.00149      -6.65885      -2.37604      -2.22115
    14  H(1)              -0.00016      -0.72765      -0.25964      -0.24272
    15  C(13)              0.00185       2.08194       0.74289       0.69446
    16  H(1)              -0.00163      -7.27165      -2.59471      -2.42556
    17  H(1)              -0.00140      -6.23855      -2.22607      -2.08096
    18  H(1)              -0.00014      -0.64489      -0.23011      -0.21511
    19  C(13)             -0.00193      -2.16942      -0.77410      -0.72364
    20  H(1)               0.00139       6.21532       2.21778       2.07321
    21  S(33)              0.14880      51.10753      18.23644      17.04764
    22  N(14)              0.12720      41.09954      14.66534      13.70933
    23  C(13)              0.02147      24.14185       8.61441       8.05285
    24  O(17)              0.00974      -5.90506      -2.10707      -1.96972
    25  H(1)              -0.00068      -3.04220      -1.08553      -1.01477
    26  H(1)              -0.00298     -13.30581      -4.74784      -4.43834
 --------------------------------------------------------
       Center         ----  Spin Dipole Couplings  ----
                      3XX-RR        3YY-RR        3ZZ-RR
 --------------------------------------------------------
     1   Atom        0.000083     -0.002250      0.002167
     2   Atom        0.005507     -0.004095     -0.001413
     3   Atom        0.022618     -0.022062     -0.000556
     4   Atom       -0.060990      0.062961     -0.001971
     5   Atom       -0.012498      0.001076      0.011421
     6   Atom       -0.173739      0.024503      0.149235
     7   Atom       -0.063890      0.080692     -0.016802
     8   Atom        0.020445     -0.026339      0.005893
     9   Atom       -0.017372     -0.000169      0.017542
    10   Atom        0.004255     -0.002394     -0.001861
    11   Atom       -0.001037      0.000918      0.000120
    12   Atom       -0.000941      0.001352     -0.000411
    13   Atom       -0.000932      0.000154      0.000778
    14   Atom       -0.001361      0.001349      0.000012
    15   Atom        0.000154     -0.001475      0.001320
    16   Atom        0.000530     -0.000603      0.000074
    17   Atom       -0.000380     -0.001171      0.001551
    18   Atom        0.000147     -0.001351      0.001204
    19   Atom        0.025666     -0.028716      0.003050
    20   Atom        0.001061     -0.001460      0.000398
    21   Atom       -0.049338     -0.220065      0.269403
    22   Atom        0.006801     -0.083954      0.077153
    23   Atom       -0.064340      0.082310     -0.017970
    24   Atom       -0.067701      0.086756     -0.019055
    25   Atom       -0.005162      0.002115      0.003048
    26   Atom       -0.001628     -0.000976      0.002604
 --------------------------------------------------------
                        XY            XZ            YZ
 --------------------------------------------------------
     1   Atom        0.021116     -0.017172      0.019313
     2   Atom       -0.007269      0.007759     -0.002527
     3   Atom        0.032450     -0.023881      0.042932
     4   Atom       -0.068842      0.048585     -0.110826
     5   Atom       -0.000557      0.004334      0.004765
     6   Atom       -0.169355      0.238605     -0.272121
     7   Atom       -0.089118      0.057852     -0.122576
     8   Atom        0.036206     -0.022160      0.043222
     9   Atom       -0.011169      0.024176     -0.017146
    10   Atom       -0.004056      0.003553     -0.002334
    11   Atom        0.001242     -0.000268      0.002478
    12   Atom        0.000318     -0.000193      0.001612
    13   Atom        0.001153      0.000384      0.001597
    14   Atom        0.000653      0.000386      0.002086
    15   Atom        0.001122     -0.002473      0.000858
    16   Atom        0.000140     -0.002084      0.000564
    17   Atom        0.000421     -0.001409     -0.000071
    18   Atom        0.000259     -0.002028     -0.000213
    19   Atom       -0.005693      0.012541     -0.030017
    20   Atom       -0.000253      0.000395     -0.003873
    21   Atom        0.080990     -0.292315     -0.174999
    22   Atom       -0.024108     -0.009688     -0.080893
    23   Atom       -0.087146      0.063136     -0.135232
    24   Atom       -0.086088      0.059472     -0.125280
    25   Atom        0.002670      0.003627      0.006790
    26   Atom       -0.009722     -0.011495      0.000747
 --------------------------------------------------------


 ---------------------------------------------------------------------------------
              Anisotropic Spin Dipole Couplings in Principal Axis System
 ---------------------------------------------------------------------------------

       Atom             a.u.   MegaHertz   Gauss  10(-4) cm-1        Axes

              Baa    -0.0386    -5.180    -1.848    -1.728 -0.5752  0.6185 -0.5353
     1 C(13)  Bbb     0.0183     2.453     0.875     0.818 -0.6026  0.1221  0.7886
              Bcc     0.0203     2.727     0.973     0.910  0.5531  0.7762  0.3025
 
              Baa    -0.0086    -4.583    -1.635    -1.529  0.5783  0.7277 -0.3689
     2 H(1)   Bbb    -0.0051    -2.732    -0.975    -0.911 -0.1990  0.5643  0.8012
              Bcc     0.0137     7.315     2.610     2.440  0.7912 -0.3899  0.4711
 
              Baa    -0.0726    -9.743    -3.476    -3.250 -0.3896  0.7286 -0.5633
     3 C(13)  Bbb     0.0328     4.400     1.570     1.468 -0.1375  0.5588  0.8178
              Bcc     0.0398     5.342     1.906     1.782  0.9107  0.3961 -0.1175
 
              Baa    -0.0917   -12.304    -4.390    -4.104  0.8935  0.4443  0.0649
     4 C(13)  Bbb    -0.0842   -11.304    -4.033    -3.770 -0.2990  0.4808  0.8243
              Bcc     0.1759    23.607     8.424     7.875 -0.3350  0.7559 -0.5624
 
              Baa    -0.0134    -7.148    -2.551    -2.384  0.9767  0.1001 -0.1898
     5 H(1)   Bbb    -0.0004    -0.240    -0.086    -0.080 -0.1576  0.9350 -0.3178
              Bcc     0.0138     7.388     2.636     2.464  0.1456  0.3403  0.9290
 
              Baa    -0.3036   -40.736   -14.536   -13.588  0.9085  0.1433 -0.3926
     6 C(13)  Bbb    -0.1904   -25.547    -9.116    -8.522  0.1176  0.8137  0.5693
              Bcc     0.4939    66.283    23.651    22.110  0.4010 -0.5634  0.7223
 
              Baa    -0.1064   -14.275    -5.094    -4.762  0.8879  0.4571  0.0520
     7 C(13)  Bbb    -0.0993   -13.330    -4.757    -4.447 -0.2779  0.4429  0.8524
              Bcc     0.2057    27.605     9.850     9.208 -0.3666  0.7713 -0.5202
 
              Baa    -0.0751   -10.084    -3.598    -3.364 -0.4055  0.7559 -0.5140
     8 C(13)  Bbb     0.0348     4.668     1.666     1.557 -0.4078  0.3537  0.8418
              Bcc     0.0404     5.416     1.933     1.807  0.8181  0.5509  0.1648
 
              Baa    -0.0299    -4.017    -1.433    -1.340  0.9004  0.0931 -0.4249
     9 C(13)  Bbb    -0.0102    -1.375    -0.491    -0.459  0.1181  0.8877  0.4449
              Bcc     0.0402     5.392     1.924     1.799  0.4186 -0.4508  0.7884
 
              Baa    -0.0046    -2.467    -0.880    -0.823  0.2114  0.8636  0.4576
    10 H(1)   Bbb    -0.0034    -1.791    -0.639    -0.597 -0.5281 -0.2930  0.7970
              Bcc     0.0080     4.258     1.519     1.420  0.8224 -0.4102  0.3941
 
              Baa    -0.0027    -0.357    -0.127    -0.119 -0.5517  0.5956 -0.5839
    11 C(13)  Bbb    -0.0005    -0.069    -0.025    -0.023  0.8125  0.2256 -0.5376
              Bcc     0.0032     0.426     0.152     0.142  0.1884  0.7710  0.6084
 
              Baa    -0.0015    -0.825    -0.294    -0.275  0.4811 -0.4658  0.7427
    12 H(1)   Bbb    -0.0008    -0.411    -0.147    -0.137  0.8750  0.2027 -0.4396
              Bcc     0.0023     1.236     0.441     0.412  0.0542  0.8614  0.5051
 
              Baa    -0.0018    -0.975    -0.348    -0.325  0.7059 -0.6455  0.2917
    13 H(1)   Bbb    -0.0006    -0.316    -0.113    -0.105 -0.6404 -0.4056  0.6522
              Bcc     0.0024     1.292     0.461     0.431  0.3027  0.6471  0.6997
 
              Baa    -0.0016    -0.840    -0.300    -0.280  0.6528 -0.5313  0.5400
    14 H(1)   Bbb    -0.0014    -0.762    -0.272    -0.254  0.7381  0.2856 -0.6113
              Bcc     0.0030     1.601     0.571     0.534  0.1705  0.7976  0.5786
 
              Baa    -0.0031    -0.411    -0.147    -0.137 -0.5871  0.6650 -0.4617
    15 C(13)  Bbb    -0.0002    -0.029    -0.010    -0.010  0.5183  0.7469  0.4166
              Bcc     0.0033     0.440     0.157     0.147 -0.6218 -0.0053  0.7831
 
              Baa    -0.0020    -1.061    -0.379    -0.354  0.6085 -0.3515  0.7114
    16 H(1)   Bbb    -0.0004    -0.232    -0.083    -0.078  0.3017  0.9317  0.2022
              Bcc     0.0024     1.293     0.461     0.431  0.7339 -0.0916 -0.6730
 
              Baa    -0.0015    -0.799    -0.285    -0.266 -0.6169  0.7400 -0.2679
    17 H(1)   Bbb    -0.0008    -0.436    -0.155    -0.145  0.6302  0.6684  0.3951
              Bcc     0.0023     1.234     0.440     0.412 -0.4714 -0.0749  0.8787
 
              Baa    -0.0015    -0.788    -0.281    -0.263  0.6612 -0.5982  0.4528
    18 H(1)   Bbb    -0.0013    -0.705    -0.252    -0.235  0.4357  0.7975  0.4173
              Bcc     0.0028     1.493     0.533     0.498 -0.6107 -0.0787  0.7879
 
              Baa    -0.0468    -6.284    -2.242    -2.096 -0.0228  0.8540  0.5197
    19 C(13)  Bbb     0.0095     1.281     0.457     0.427  0.6459  0.4094 -0.6443
              Bcc     0.0373     5.003     1.785     1.669  0.7630 -0.3210  0.5610
 
              Baa    -0.0045    -2.408    -0.859    -0.803 -0.0083  0.7849  0.6195
    20 H(1)   Bbb     0.0010     0.520     0.185     0.173  0.9827  0.1210 -0.1402
              Bcc     0.0035     1.889     0.674     0.630  0.1850 -0.6077  0.7723
 
              Baa    -0.2781   -11.403    -4.069    -3.804  0.1563  0.9136  0.3754
    21 S(33)  Bbb    -0.2164    -8.871    -3.165    -2.959  0.8594 -0.3131  0.4043
              Bcc     0.4945    20.274     7.234     6.763 -0.4869 -0.2594  0.8340
 
              Baa    -0.1228    -4.735    -1.690    -1.579  0.1966  0.9056  0.3759
    22 N(14)  Bbb     0.0120     0.463     0.165     0.155  0.9805 -0.1804 -0.0782
              Bcc     0.1108     4.272     1.524     1.425  0.0030 -0.3840  0.9233
 
              Baa    -0.1126   -15.106    -5.390    -5.039 -0.2429  0.4774  0.8445
    23 C(13)  Bbb    -0.1049   -14.077    -5.023    -4.696  0.9021  0.4312  0.0157
              Bcc     0.2175    29.183    10.413     9.735 -0.3567  0.7656 -0.5354
 
              Baa    -0.1078     7.801     2.784     2.602  0.8894  0.1074 -0.4443
    24 O(17)  Bbb    -0.1015     7.347     2.622     2.451  0.2901  0.6185  0.7303
              Bcc     0.2093   -15.148    -5.405    -5.053 -0.3533  0.7784 -0.5189
 
              Baa    -0.0065    -3.488    -1.245    -1.163  0.9406 -0.0246 -0.3385
    25 H(1)   Bbb    -0.0041    -2.197    -0.784    -0.733 -0.2025  0.7599 -0.6177
              Bcc     0.0107     5.684     2.028     1.896  0.2724  0.6496  0.7098
 
              Baa    -0.0151    -8.070    -2.880    -2.692  0.7426  0.4859  0.4610
    26 H(1)   Bbb    -0.0002    -0.126    -0.045    -0.042 -0.1070  0.7655 -0.6345
              Bcc     0.0154     8.196     2.925     2.734  0.6612 -0.4218 -0.6204
 

 ---------------------------------------------------------------------------------

 Calling FoFJK, ICntrl=    100127 FMM=F ISym2X=0 I1Cent= 0 IOpClX= 1 NMat=1 NMatS=1 NMatT=0.
 Full mass-weighted force constant matrix:
 Low frequencies --- -223.8863   -1.6510   -1.1820   -0.0010    0.0008    0.0024
 Low frequencies ---    4.1054   19.7235   29.6555
 ******    1 imaginary frequencies (negative Signs) ****** 
 Diagonal vibrational polarizability:
       22.4034435      56.3288376      31.6033912
 Harmonic frequencies (cm**-1), IR intensities (KM/Mole), Raman scattering
 activities (A**4/AMU), depolarization ratios for plane and unpolarized
 incident light, reduced masses (AMU), force constants (mDyne/A),
 and normal coordinates:
                      1                      2                      3
                      A                      A                      A
 Frequencies --   -223.8863                19.7078                29.6537
 Red. masses --      9.0685                 7.9996                 5.0405
 Frc consts  --      0.2678                 0.0018                 0.0026
 IR Inten    --     14.3017                 0.3269                 0.1851
  Atom  AN      X      Y      Z        X      Y      Z        X      Y      Z
     1   6    -0.20   0.50  -0.35    -0.02  -0.05  -0.10    -0.06  -0.00  -0.04
     2   1    -0.10   0.22  -0.17    -0.01  -0.05  -0.16    -0.07   0.03  -0.05
     3   6     0.01   0.03  -0.03    -0.08  -0.08   0.02     0.00  -0.11   0.04
     4   6    -0.09   0.18  -0.10     0.03  -0.01  -0.06    -0.07   0.03  -0.06
     5   1    -0.09   0.19  -0.11     0.07   0.01  -0.09    -0.10   0.08  -0.09
     6   6     0.04  -0.29   0.06    -0.04  -0.05  -0.11    -0.01   0.01  -0.09
     7   6    -0.07   0.13  -0.13    -0.07  -0.08  -0.06    -0.03  -0.05   0.01
     8   6     0.01   0.05  -0.02     0.03  -0.02   0.02    -0.04  -0.02  -0.02
     9   6     0.05  -0.07   0.14     0.02  -0.07  -0.21     0.07   0.30   0.08
    10   1     0.06  -0.02   0.18     0.01  -0.17  -0.33     0.10   0.44   0.16
    11   6     0.03  -0.04   0.03    -0.13  -0.11   0.07     0.05  -0.19   0.10
    12   1     0.01  -0.02   0.07    -0.12  -0.10   0.11     0.11  -0.18   0.16
    13   1     0.04  -0.06   0.00    -0.16  -0.13   0.10     0.02  -0.28   0.10
    14   1     0.03  -0.08   0.04    -0.16  -0.14   0.03     0.04  -0.17   0.10
    15   6     0.03  -0.03   0.03     0.08   0.02   0.07    -0.05  -0.00  -0.03
    16   1     0.02  -0.03   0.06     0.05  -0.01   0.10    -0.08  -0.08  -0.06
    17   1     0.06  -0.05  -0.00     0.11   0.03   0.12    -0.00   0.01   0.03
    18   1     0.04  -0.05   0.04     0.12   0.05   0.02    -0.09   0.07  -0.08
    19   6     0.04  -0.03   0.14     0.10   0.16   0.02     0.07   0.22   0.05
    20   1     0.04   0.06   0.20     0.17   0.29   0.11     0.10   0.27   0.09
    21  16     0.03  -0.10   0.06     0.08   0.25   0.16     0.01  -0.02  -0.09
    22   7     0.03  -0.17   0.05    -0.06  -0.19  -0.28     0.02   0.18   0.01
    23   6     0.00   0.02  -0.02    -0.03  -0.05   0.06    -0.01  -0.10   0.03
    24   8     0.02  -0.01   0.01    -0.02  -0.05   0.14     0.02  -0.16   0.08
    25   1     0.02  -0.02   0.02    -0.07  -0.07   0.16     0.05  -0.22   0.11
    26   1    -0.07   0.12  -0.13    -0.11  -0.10  -0.09    -0.02  -0.07   0.02
                      4                      5                      6
                      A                      A                      A
 Frequencies --     45.1187               111.9567               116.0092
 Red. masses --      4.4396                 5.0784                 4.2644
 Frc consts  --      0.0053                 0.0375                 0.0338
 IR Inten    --      0.3956                 1.8248                 1.8988
  Atom  AN      X      Y      Z        X      Y      Z        X      Y      Z
     1   6     0.07  -0.08  -0.02     0.03  -0.03  -0.13     0.03   0.01  -0.01
     2   1     0.08  -0.11  -0.01     0.03  -0.03  -0.17     0.01   0.07  -0.06
     3   6     0.04  -0.08   0.02    -0.01  -0.04  -0.06     0.05  -0.01   0.02
     4   6     0.05  -0.00  -0.05     0.07  -0.01  -0.10     0.07  -0.03   0.02
     5   1     0.05   0.03  -0.07     0.09   0.02  -0.13     0.09  -0.06   0.04
     6   6     0.05  -0.11  -0.03    -0.09   0.17   0.20    -0.19  -0.06  -0.04
     7   6     0.07  -0.13   0.03    -0.02  -0.00  -0.13     0.06  -0.03   0.02
     8   6     0.01   0.08  -0.07     0.05   0.03  -0.08     0.06  -0.02   0.02
     9   6    -0.06  -0.05   0.16    -0.01  -0.01  -0.05    -0.02   0.13  -0.08
    10   1    -0.08  -0.07   0.24     0.00  -0.02  -0.15     0.03   0.23  -0.13
    11   6     0.04  -0.13   0.07    -0.03  -0.11   0.01     0.08  -0.07   0.06
    12   1    -0.04  -0.09   0.13     0.16  -0.13   0.08    -0.16   0.01   0.12
    13   1     0.10  -0.13  -0.00    -0.16  -0.24   0.11     0.24   0.00  -0.12
    14   1     0.07  -0.24   0.13    -0.10  -0.02  -0.10     0.17  -0.28   0.22
    15   6    -0.04   0.21  -0.15     0.03   0.18  -0.12     0.10  -0.07   0.07
    16   1     0.04   0.30  -0.22     0.12   0.31  -0.18     0.15   0.14   0.16
    17   1    -0.17   0.26  -0.14    -0.13   0.24  -0.12    -0.03  -0.11  -0.11
    18   1    -0.02   0.20  -0.14     0.09   0.15  -0.12     0.20  -0.26   0.19
    19   6    -0.11   0.07   0.13     0.03  -0.15  -0.05     0.07   0.07   0.01
    20   1    -0.18   0.16   0.19     0.08  -0.29  -0.15     0.19   0.11   0.05
    21  16    -0.05   0.06  -0.01    -0.02  -0.05   0.15    -0.06  -0.11   0.07
    22   7     0.03  -0.14   0.07    -0.08   0.16   0.10    -0.16   0.05  -0.10
    23   6     0.01   0.04  -0.04     0.03  -0.03  -0.02     0.02   0.06  -0.03
    24   8    -0.03   0.12  -0.08     0.05  -0.06   0.06    -0.04   0.18  -0.11
    25   1    -0.03   0.10  -0.06     0.04  -0.12   0.10    -0.08   0.27  -0.17
    26   1     0.09  -0.21   0.07    -0.05   0.00  -0.17     0.07  -0.05   0.04
                      7                      8                      9
                      A                      A                      A
 Frequencies --    133.2973               134.9821               160.3614
 Red. masses --      2.6237                 1.2159                 1.1218
 Frc consts  --      0.0275                 0.0131                 0.0170
 IR Inten    --      1.9471                 0.7207                 1.3069
  Atom  AN      X      Y      Z        X      Y      Z        X      Y      Z
     1   6     0.03  -0.01   0.04    -0.02   0.02  -0.00     0.01  -0.00   0.01
     2   1     0.02   0.02   0.03    -0.02   0.00   0.01     0.01  -0.00   0.01
     3   6     0.03   0.02   0.01    -0.01  -0.00   0.00    -0.00   0.02  -0.01
     4   6     0.02   0.00   0.03    -0.01  -0.01   0.01     0.01  -0.01   0.01
     5   1    -0.00   0.03   0.01    -0.01  -0.03   0.03     0.01  -0.02   0.02
     6   6    -0.07  -0.11  -0.06     0.04   0.03   0.01    -0.01  -0.02  -0.01
     7   6     0.03   0.00   0.03    -0.02   0.02  -0.01     0.00   0.01   0.00
     8   6     0.02   0.00   0.02    -0.01  -0.02   0.01    -0.00   0.01  -0.00
     9   6    -0.00   0.04  -0.00     0.00  -0.02   0.00    -0.00   0.00   0.00
    10   1     0.02   0.10   0.00    -0.01  -0.04   0.01     0.00   0.01   0.00
    11   6    -0.03   0.16  -0.10     0.01  -0.04   0.03     0.02  -0.03   0.03
    12   1     0.07   0.08  -0.24     0.07  -0.04   0.07     0.57  -0.16   0.05
    13   1    -0.12   0.21   0.05    -0.01  -0.10   0.04    -0.35  -0.34   0.34
    14   1    -0.10   0.32  -0.21     0.01  -0.02   0.02    -0.17   0.39  -0.30
    15   6    -0.04   0.12  -0.06    -0.00  -0.03   0.02     0.01  -0.02   0.01
    16   1     0.14   0.46  -0.10     0.20   0.50   0.13    -0.02  -0.08   0.02
    17   1    -0.37   0.14  -0.25    -0.40  -0.09  -0.37     0.06  -0.03   0.04
    18   1     0.05  -0.10   0.08     0.20  -0.47   0.30    -0.01   0.01  -0.01
    19   6     0.03   0.06   0.05    -0.01  -0.01  -0.02     0.00   0.01   0.01
    20   1     0.07   0.14   0.11    -0.04  -0.03  -0.04     0.01   0.03   0.02
    21  16    -0.02  -0.06   0.01     0.01   0.03  -0.03    -0.00  -0.01  -0.00
    22   7    -0.06  -0.06  -0.07     0.03   0.01   0.01    -0.01  -0.01  -0.01
    23   6     0.04  -0.04   0.04    -0.02  -0.00  -0.00    -0.01   0.02  -0.01
    24   8     0.07  -0.09   0.07    -0.02  -0.00  -0.01    -0.02   0.05  -0.03
    25   1     0.11  -0.17   0.12     0.00  -0.03   0.00     0.01  -0.00  -0.01
    26   1     0.02   0.04   0.01    -0.02   0.02  -0.01     0.00   0.01   0.00
                     10                     11                     12
                      A                      A                      A
 Frequencies --    252.8488               283.9863               288.3524
 Red. masses --      2.7661                 3.0061                 3.7784
 Frc consts  --      0.1042                 0.1428                 0.1851
 IR Inten    --      7.1104                 2.0988                 0.4617
  Atom  AN      X      Y      Z        X      Y      Z        X      Y      Z
     1   6    -0.00   0.01   0.04     0.01  -0.08   0.05     0.08  -0.09   0.07
     2   1     0.01  -0.01   0.01     0.01  -0.10   0.06     0.09  -0.11   0.09
     3   6    -0.04   0.10  -0.06    -0.08   0.08  -0.07    -0.04   0.16  -0.10
     4   6     0.09  -0.16   0.13    -0.04  -0.00  -0.04     0.01   0.08  -0.02
     5   1     0.15  -0.30   0.23    -0.02  -0.05  -0.00     0.05   0.02   0.01
     6   6     0.00  -0.03  -0.02    -0.00  -0.02  -0.01    -0.01  -0.02  -0.02
     7   6    -0.09   0.18  -0.11    -0.05   0.01   0.00     0.04   0.02  -0.02
     8   6     0.03  -0.07   0.06    -0.09   0.08  -0.07    -0.04   0.18  -0.11
     9   6     0.00   0.00   0.00    -0.00  -0.01   0.01    -0.00  -0.01   0.01
    10   1     0.01   0.01   0.01    -0.00  -0.00   0.02     0.00   0.00   0.02
    11   6     0.05  -0.05   0.06     0.18  -0.00  -0.07    -0.11  -0.03   0.10
    12   1     0.04   0.02   0.22     0.25  -0.02  -0.07    -0.17   0.08   0.35
    13   1     0.09  -0.19  -0.08     0.25  -0.15  -0.25    -0.11  -0.13   0.04
    14   1     0.11  -0.15   0.15     0.33   0.07   0.10    -0.13  -0.26   0.11
    15   6    -0.06   0.06  -0.05     0.13   0.12   0.14    -0.05  -0.15  -0.07
    16   1    -0.00   0.01  -0.23     0.04   0.17   0.38    -0.12  -0.17   0.05
    17   1    -0.13   0.13   0.05     0.21   0.13   0.22     0.08  -0.31  -0.32
    18   1    -0.14   0.18  -0.12     0.36   0.09   0.06    -0.14  -0.31   0.10
    19   6     0.01   0.03   0.01     0.00   0.01   0.03     0.01   0.02   0.04
    20   1     0.01   0.06   0.04     0.01   0.03   0.04     0.02   0.05   0.06
    21  16     0.00  -0.01  -0.02    -0.00  -0.02   0.01    -0.01  -0.04   0.02
    22   7     0.00  -0.04  -0.03    -0.00  -0.03  -0.00    -0.01  -0.04  -0.01
    23   6    -0.00   0.01   0.01    -0.11   0.06  -0.07    -0.00   0.18  -0.10
    24   8     0.02  -0.04   0.03    -0.04  -0.10   0.02     0.12  -0.06   0.09
    25   1    -0.16   0.35  -0.21     0.01  -0.18   0.06     0.11  -0.12   0.14
    26   1    -0.15   0.31  -0.21    -0.03  -0.03   0.03     0.08  -0.05   0.04
                     13                     14                     15
                      A                      A                      A
 Frequencies --    321.3520               339.4937               458.0981
 Red. masses --      2.8211                 1.2767                 5.6360
 Frc consts  --      0.1716                 0.0867                 0.6968
 IR Inten    --     14.9932                73.9662                 3.1613
  Atom  AN      X      Y      Z        X      Y      Z        X      Y      Z
     1   6     0.00  -0.01  -0.02     0.00  -0.01  -0.01     0.03  -0.07   0.05
     2   1     0.02  -0.04  -0.07     0.00  -0.01  -0.01    -0.01   0.03  -0.00
     3   6    -0.04  -0.04  -0.02    -0.01  -0.01  -0.01     0.01  -0.02   0.01
     4   6     0.04  -0.00   0.02    -0.02   0.05  -0.03    -0.06   0.12  -0.09
     5   1     0.06  -0.03   0.03    -0.04   0.11  -0.08    -0.16   0.29  -0.21
     6   6    -0.00   0.00  -0.00     0.00   0.00  -0.00     0.05   0.31   0.20
     7   6    -0.05  -0.00  -0.01     0.01  -0.04   0.03    -0.04   0.11  -0.06
     8   6     0.04   0.01  -0.01     0.01   0.01  -0.01     0.01  -0.03   0.00
     9   6    -0.00   0.00  -0.00    -0.00   0.00   0.00    -0.03  -0.15  -0.07
    10   1    -0.00  -0.00  -0.00     0.00   0.00   0.00    -0.06  -0.30  -0.17
    11   6     0.15  -0.01  -0.10     0.04   0.00  -0.04    -0.00  -0.01   0.01
    12   1     0.19  -0.07  -0.21     0.10  -0.01  -0.06    -0.02  -0.01   0.02
    13   1     0.21  -0.05  -0.19     0.01  -0.04  -0.03    -0.00  -0.01   0.01
    14   1     0.27   0.10   0.02     0.04   0.11  -0.06    -0.01  -0.03   0.01
    15   6    -0.05  -0.09  -0.10    -0.01  -0.02  -0.02     0.02  -0.01  -0.00
    16   1    -0.04  -0.14  -0.18     0.01   0.00  -0.02     0.02   0.01   0.01
    17   1    -0.04  -0.14  -0.20    -0.02  -0.04  -0.07     0.01  -0.01  -0.01
    18   1    -0.19  -0.11  -0.02    -0.01  -0.07   0.02     0.04  -0.03  -0.00
    19   6    -0.00  -0.00  -0.00    -0.00  -0.01  -0.00     0.04   0.23   0.20
    20   1     0.00  -0.00  -0.00    -0.00  -0.01  -0.01     0.06   0.39   0.32
    21  16     0.00   0.00   0.00    -0.00   0.00   0.00    -0.00  -0.12  -0.07
    22   7    -0.00   0.00   0.00     0.00   0.00   0.00    -0.02  -0.13  -0.07
    23   6    -0.01   0.00   0.01    -0.00   0.00  -0.00     0.05  -0.10   0.06
    24   8    -0.09   0.16   0.20     0.01  -0.03   0.09    -0.03   0.05  -0.02
    25   1    -0.04  -0.36   0.55    -0.43   0.75  -0.39    -0.04   0.05  -0.02
    26   1    -0.07   0.01  -0.03     0.03  -0.09   0.06    -0.09   0.22  -0.14
                     16                     17                     18
                      A                      A                      A
 Frequencies --    490.3799               492.8675               498.2584
 Red. masses --      3.3355                 4.9338                 3.8217
 Frc consts  --      0.4726                 0.7061                 0.5590
 IR Inten    --      3.4134                 2.7743                10.4032
  Atom  AN      X      Y      Z        X      Y      Z        X      Y      Z
     1   6     0.05  -0.07  -0.14    -0.08  -0.19   0.02     0.12  -0.07  -0.03
     2   1     0.07  -0.09  -0.19    -0.09  -0.16  -0.02     0.09  -0.00  -0.08
     3   6     0.01  -0.07   0.20    -0.02  -0.00  -0.13    -0.12   0.22  -0.00
     4   6     0.11  -0.07  -0.06    -0.09   0.13  -0.02     0.00   0.10  -0.17
     5   1     0.30  -0.16  -0.03    -0.01   0.34  -0.21    -0.13   0.37  -0.36
     6   6     0.00   0.02   0.01    -0.00  -0.06  -0.06     0.00  -0.04  -0.08
     7   6    -0.04  -0.03  -0.11    -0.05  -0.01  -0.15    -0.00  -0.01  -0.01
     8   6    -0.07   0.18   0.01    -0.03   0.03   0.19     0.10  -0.16   0.10
     9   6    -0.00  -0.01  -0.01     0.00   0.03   0.04     0.00   0.02   0.03
    10   1    -0.00  -0.02  -0.01     0.01   0.07   0.07     0.01   0.06   0.07
    11   6     0.09   0.10   0.08     0.01  -0.11  -0.14     0.06   0.12   0.13
    12   1     0.09   0.00  -0.18     0.07  -0.10  -0.09     0.15   0.16   0.29
    13   1     0.14   0.22   0.07     0.05  -0.23  -0.25     0.08  -0.12  -0.03
    14   1     0.14   0.30   0.12     0.09  -0.10  -0.04     0.15   0.08   0.26
    15   6    -0.12  -0.03   0.05    -0.16   0.04   0.18     0.00  -0.04  -0.05
    16   1    -0.19  -0.11   0.11    -0.13   0.04   0.13     0.11  -0.04  -0.28
    17   1     0.02  -0.17  -0.13    -0.18   0.04   0.17    -0.14   0.01  -0.03
    18   1    -0.25  -0.12   0.19    -0.19   0.04   0.20    -0.14   0.02  -0.04
    19   6     0.00   0.01   0.01    -0.01  -0.05  -0.03    -0.01  -0.05  -0.02
    20   1     0.01   0.02   0.02    -0.02  -0.07  -0.04    -0.01  -0.07  -0.04
    21  16    -0.00  -0.01  -0.00     0.01   0.01   0.03     0.00  -0.00   0.03
    22   7    -0.00  -0.00  -0.00     0.00  -0.00   0.01     0.01  -0.00   0.01
    23   6    -0.05   0.06   0.10     0.17   0.01   0.09    -0.05  -0.07   0.10
    24   8     0.01  -0.06  -0.06     0.18   0.12  -0.04    -0.10  -0.03  -0.06
    25   1     0.14   0.10  -0.19     0.26   0.09  -0.03     0.08  -0.14  -0.01
    26   1    -0.20  -0.02  -0.27    -0.02   0.12  -0.16    -0.06  -0.16  -0.03
                     19                     20                     21
                      A                      A                      A
 Frequencies --    503.3904               553.8163               562.4467
 Red. masses --      3.6885                 4.7203                12.5736
 Frc consts  --      0.5507                 0.8530                 2.3435
 IR Inten    --     12.4682                 4.9344                 1.2156
  Atom  AN      X      Y      Z        X      Y      Z        X      Y      Z
     1   6     0.06  -0.08   0.15     0.02  -0.04  -0.06    -0.01  -0.03   0.02
     2   1     0.02   0.04   0.07    -0.07   0.12   0.18    -0.05   0.12  -0.15
     3   6     0.07  -0.11   0.09     0.19   0.07  -0.02    -0.05  -0.00   0.01
     4   6    -0.04   0.09  -0.04    -0.14  -0.18  -0.16     0.03   0.04   0.02
     5   1    -0.15   0.14  -0.05    -0.13  -0.19  -0.16     0.01   0.10  -0.02
     6   6     0.00  -0.08  -0.13    -0.03  -0.00   0.01    -0.39   0.02   0.12
     7   6    -0.08   0.21  -0.08     0.24   0.02  -0.15    -0.05  -0.01   0.03
     8   6    -0.03   0.07  -0.14    -0.17  -0.10  -0.03     0.04   0.02  -0.00
     9   6     0.00   0.05   0.06    -0.01   0.02   0.02    -0.16   0.06   0.11
    10   1     0.02   0.13   0.13     0.01   0.07   0.03    -0.04   0.36   0.03
    11   6    -0.02  -0.01   0.03     0.04   0.09   0.10    -0.00  -0.00  -0.00
    12   1    -0.09  -0.01  -0.04    -0.03   0.16   0.22     0.02  -0.02  -0.03
    13   1    -0.03   0.12   0.12    -0.03   0.14   0.22     0.02  -0.03  -0.04
    14   1    -0.07  -0.03  -0.04    -0.09  -0.07  -0.03     0.03   0.03   0.03
    15   6     0.09  -0.02  -0.06    -0.10   0.02   0.10     0.03  -0.01  -0.03
    16   1    -0.01  -0.02   0.14    -0.12   0.09   0.21     0.03  -0.03  -0.05
    17   1     0.22  -0.09  -0.12    -0.12   0.09   0.23     0.05  -0.03  -0.07
    18   1     0.19  -0.11  -0.04     0.10   0.04  -0.01    -0.01  -0.02  -0.01
    19   6    -0.03  -0.09  -0.04    -0.01  -0.03   0.00    -0.05  -0.21   0.16
    20   1    -0.03  -0.12  -0.06    -0.02  -0.01   0.01    -0.25  -0.09   0.23
    21  16     0.01   0.01   0.05     0.03   0.01  -0.01     0.40   0.08  -0.19
    22   7     0.01  -0.01   0.02    -0.03  -0.02  -0.00    -0.39  -0.10   0.09
    23   6     0.04  -0.14   0.04     0.02  -0.03  -0.05    -0.01   0.02   0.01
    24   8    -0.06   0.03  -0.01    -0.04   0.09   0.14     0.01  -0.02  -0.03
    25   1    -0.15   0.10  -0.05    -0.31   0.01   0.23     0.08  -0.00  -0.05
    26   1    -0.23   0.54  -0.30     0.23   0.05  -0.17    -0.06  -0.00   0.02
                     22                     23                     24
                      A                      A                      A
 Frequencies --    581.4361               677.9450               684.6365
 Red. masses --      4.3509                 8.0254                 5.0628
 Frc consts  --      0.8666                 2.1732                 1.3982
 IR Inten    --      8.1202                60.0622                 3.9873
  Atom  AN      X      Y      Z        X      Y      Z        X      Y      Z
     1   6     0.00  -0.02   0.01     0.03  -0.05   0.03     0.27   0.14   0.02
     2   1    -0.01   0.03  -0.00     0.11  -0.27   0.17     0.28   0.14   0.02
     3   6     0.01   0.01  -0.00    -0.03   0.06  -0.03     0.05   0.02  -0.09
     4   6    -0.01   0.00  -0.01    -0.02   0.00   0.01     0.15   0.07   0.01
     5   1    -0.02   0.02  -0.02    -0.09   0.11  -0.06     0.12   0.10   0.01
     6   6    -0.06  -0.17  -0.16    -0.14  -0.25   0.34    -0.01  -0.00  -0.00
     7   6     0.00   0.01  -0.02    -0.01  -0.02  -0.02     0.15   0.06   0.01
     8   6    -0.01  -0.00  -0.01    -0.03   0.06  -0.05     0.00   0.10   0.05
     9   6    -0.07  -0.21  -0.14     0.28  -0.05  -0.05    -0.00   0.00  -0.00
    10   1    -0.14  -0.65  -0.49     0.36   0.07  -0.22     0.00   0.02  -0.01
    11   6     0.00   0.01   0.01     0.01   0.03   0.03    -0.06  -0.15  -0.17
    12   1     0.00   0.01   0.03     0.05   0.06   0.13    -0.09  -0.09  -0.03
    13   1    -0.00  -0.00   0.01     0.01  -0.07  -0.03    -0.10  -0.18  -0.13
    14   1    -0.00  -0.01   0.01     0.04  -0.00   0.07    -0.13  -0.29  -0.25
    15   6    -0.00   0.00   0.00     0.03   0.00  -0.03    -0.17   0.03   0.15
    16   1    -0.01   0.00   0.02    -0.04  -0.02   0.08    -0.19  -0.04   0.14
    17   1     0.01  -0.00   0.00     0.13  -0.06  -0.09    -0.09  -0.05   0.03
    18   1     0.01  -0.00  -0.00     0.07  -0.06  -0.00    -0.30  -0.02   0.26
    19   6     0.01   0.16   0.14     0.29  -0.04  -0.01     0.00  -0.00   0.00
    20   1    -0.05  -0.12  -0.06     0.28  -0.02   0.01     0.01   0.01   0.01
    21  16     0.05  -0.01  -0.01    -0.17   0.14  -0.15     0.00   0.00  -0.00
    22   7     0.00   0.25   0.20    -0.07  -0.01   0.10    -0.02   0.00   0.00
    23   6     0.01  -0.01   0.01     0.06  -0.13   0.09    -0.05  -0.11   0.05
    24   8    -0.00   0.01   0.00    -0.01   0.03  -0.02    -0.21  -0.09  -0.02
    25   1    -0.02   0.01   0.00    -0.01   0.03  -0.02    -0.16  -0.09  -0.04
    26   1    -0.02   0.06  -0.05    -0.07   0.06  -0.09     0.12   0.08  -0.03
                     25                     26                     27
                      A                      A                      A
 Frequencies --    720.7730               729.3895               799.5316
 Red. masses --      5.3287                 1.2517                 6.0758
 Frc consts  --      1.6310                 0.3923                 2.2883
 IR Inten    --      3.8334                37.7581               135.9600
  Atom  AN      X      Y      Z        X      Y      Z        X      Y      Z
     1   6     0.07  -0.07   0.06    -0.00  -0.00  -0.00     0.03  -0.05   0.03
     2   1     0.01   0.15  -0.08    -0.01   0.01  -0.00     0.14  -0.40   0.24
     3   6     0.10  -0.17   0.11    -0.00   0.00  -0.00     0.04  -0.02   0.01
     4   6    -0.02   0.11  -0.06    -0.00  -0.00   0.00    -0.02   0.06   0.04
     5   1    -0.08   0.24  -0.15     0.00  -0.00   0.00    -0.10   0.24  -0.09
     6   6    -0.03  -0.03   0.01     0.00  -0.00  -0.02    -0.03  -0.27   0.37
     7   6    -0.01   0.10  -0.07     0.00  -0.00   0.00     0.01  -0.01  -0.08
     8   6     0.10  -0.18   0.14    -0.00   0.00  -0.00     0.03  -0.01   0.04
     9   6     0.09  -0.03   0.01    -0.01  -0.08  -0.05    -0.17   0.10  -0.11
    10   1     0.12   0.02  -0.05     0.05   0.24   0.17    -0.29  -0.09   0.16
    11   6     0.01  -0.05  -0.01     0.00   0.00   0.00     0.02   0.01   0.02
    12   1    -0.10  -0.12  -0.25     0.00   0.00   0.00    -0.01   0.02   0.01
    13   1     0.00   0.22   0.14     0.00  -0.00  -0.00     0.00   0.06   0.06
    14   1    -0.07   0.03  -0.12     0.00   0.00   0.00    -0.01  -0.00  -0.02
    15   6    -0.01  -0.02   0.05     0.00   0.00  -0.00     0.02  -0.00  -0.01
    16   1     0.16   0.02  -0.26    -0.00   0.00   0.00     0.05  -0.01  -0.07
    17   1    -0.26   0.11   0.16     0.00   0.00   0.00    -0.00  -0.00  -0.03
    18   1    -0.12   0.11  -0.01     0.00   0.00  -0.00    -0.03   0.00   0.01
    19   6     0.09  -0.03   0.02    -0.01  -0.07  -0.05    -0.21   0.11  -0.12
    20   1     0.08  -0.02   0.02     0.13   0.76   0.55    -0.16   0.21  -0.06
    21  16    -0.05   0.03  -0.03     0.00   0.00   0.01     0.08  -0.02   0.01
    22   7    -0.03  -0.02   0.05     0.00   0.05   0.04     0.17   0.11  -0.16
    23   6    -0.17   0.32  -0.23     0.00  -0.00   0.00    -0.04   0.04  -0.03
    24   8    -0.02  -0.07   0.03     0.00   0.00  -0.00    -0.04  -0.03  -0.00
    25   1    -0.01  -0.10   0.05     0.00   0.00   0.00    -0.04  -0.03   0.00
    26   1    -0.06   0.20  -0.14     0.00   0.00   0.00    -0.04   0.12  -0.16
                     28                     29                     30
                      A                      A                      A
 Frequencies --    826.2849               840.6080               853.7885
 Red. masses --      1.4017                 3.5412                 4.8642
 Frc consts  --      0.5638                 1.4743                 2.0891
 IR Inten    --     44.5267                18.5474                 0.8818
  Atom  AN      X      Y      Z        X      Y      Z        X      Y      Z
     1   6    -0.07  -0.03  -0.01     0.21   0.11   0.01     0.02   0.01   0.00
     2   1    -0.22   0.43  -0.30     0.17   0.25  -0.06     0.03  -0.03   0.03
     3   6     0.01   0.02  -0.02    -0.10  -0.01   0.06    -0.00  -0.00   0.01
     4   6     0.04  -0.04   0.08    -0.01  -0.15  -0.14    -0.00  -0.01  -0.01
     5   1    -0.15   0.38  -0.22    -0.35   0.07  -0.24    -0.01  -0.01  -0.00
     6   6     0.01   0.01   0.00    -0.01  -0.04   0.04     0.05  -0.01  -0.01
     7   6     0.07  -0.10   0.03    -0.09   0.01   0.18    -0.01   0.01   0.01
     8   6     0.00   0.03   0.00    -0.06  -0.07  -0.06    -0.00  -0.01  -0.00
     9   6     0.00  -0.00   0.01    -0.01   0.01  -0.01    -0.22   0.07  -0.01
    10   1    -0.00  -0.02   0.01    -0.02  -0.00   0.03    -0.20  -0.00  -0.18
    11   6     0.00   0.02  -0.00    -0.06  -0.04  -0.04    -0.00  -0.00  -0.00
    12   1     0.03   0.05   0.10     0.05  -0.11  -0.12    -0.00  -0.01  -0.02
    13   1    -0.01  -0.07  -0.02     0.02  -0.15  -0.19     0.00  -0.00  -0.01
    14   1     0.01  -0.05   0.02     0.08   0.08   0.12     0.00   0.01   0.00
    15   6     0.01   0.01  -0.01    -0.07  -0.01   0.02    -0.01  -0.00   0.00
    16   1    -0.03  -0.02   0.04    -0.10   0.06   0.16    -0.01   0.01   0.01
    17   1     0.08  -0.03  -0.06    -0.05   0.04   0.14    -0.01   0.01   0.01
    18   1     0.01  -0.04   0.03     0.12  -0.01  -0.06     0.01   0.00  -0.01
    19   6     0.00  -0.01   0.01    -0.02   0.02  -0.03     0.11  -0.28   0.33
    20   1     0.01  -0.00   0.01    -0.04   0.03  -0.02     0.61  -0.28   0.38
    21  16    -0.01   0.00  -0.00     0.01  -0.00   0.00    -0.05   0.04  -0.04
    22   7     0.02  -0.00  -0.01     0.01   0.01  -0.01     0.13   0.12  -0.19
    23   6    -0.01   0.02  -0.01    -0.01   0.02  -0.01     0.00   0.00  -0.00
    24   8    -0.03  -0.02   0.00     0.16   0.08   0.01     0.01   0.01   0.00
    25   1    -0.02  -0.02   0.00     0.12   0.08   0.02     0.01   0.01   0.00
    26   1    -0.20   0.46  -0.36    -0.43   0.24  -0.21    -0.01  -0.02   0.02
                     31                     32                     33
                      A                      A                      A
 Frequencies --    876.5583               884.0055               923.6365
 Red. masses --      1.3367                 1.3169                 2.5510
 Frc consts  --      0.6051                 0.6063                 1.2822
 IR Inten    --      1.7904                 1.0100                11.4557
  Atom  AN      X      Y      Z        X      Y      Z        X      Y      Z
     1   6     0.00  -0.00   0.00    -0.00   0.00  -0.00    -0.02   0.01   0.03
     2   1    -0.01   0.06  -0.11    -0.00  -0.00   0.00    -0.14   0.25   0.32
     3   6     0.01  -0.01   0.00     0.00  -0.00  -0.00    -0.01   0.06   0.09
     4   6     0.06  -0.09   0.07     0.00  -0.00   0.00    -0.08  -0.10  -0.05
     5   1    -0.30   0.54  -0.37    -0.00   0.01  -0.00    -0.11  -0.04  -0.10
     6   6     0.00  -0.00  -0.00     0.00  -0.00   0.00    -0.00  -0.01   0.00
     7   6    -0.05   0.08  -0.05     0.00  -0.00  -0.00     0.13   0.04  -0.07
     8   6    -0.01   0.00  -0.02     0.00   0.00   0.00    -0.04   0.04   0.08
     9   6     0.00  -0.00   0.00    -0.03  -0.11  -0.09     0.00  -0.00  -0.00
    10   1     0.00  -0.01   0.00     0.12   0.73   0.52    -0.00  -0.00   0.01
    11   6     0.01  -0.00   0.01     0.00   0.00   0.00    -0.08  -0.10  -0.08
    12   1    -0.04  -0.02  -0.05    -0.00   0.00   0.00     0.05  -0.23  -0.31
    13   1     0.01   0.09   0.06    -0.00   0.00   0.00     0.05  -0.17  -0.30
    14   1    -0.02   0.03  -0.03    -0.00  -0.00  -0.00     0.09   0.12   0.09
    15   6    -0.02   0.01  -0.00     0.00   0.00  -0.00     0.12   0.01  -0.08
    16   1    -0.09  -0.01   0.12    -0.00  -0.00   0.00     0.14  -0.12  -0.23
    17   1     0.08  -0.03  -0.03     0.00  -0.00  -0.00     0.15  -0.09  -0.27
    18   1     0.04  -0.05   0.03    -0.00  -0.00   0.00    -0.08  -0.03   0.03
    19   6    -0.00   0.00  -0.00     0.01   0.05   0.06    -0.00   0.00  -0.00
    20   1    -0.00   0.00  -0.00    -0.03  -0.32  -0.21    -0.00   0.00  -0.00
    21  16    -0.00   0.00   0.00    -0.00   0.00   0.00    -0.00   0.00  -0.00
    22   7     0.00  -0.00   0.00     0.01   0.02   0.00     0.00   0.00  -0.00
    23   6     0.00  -0.00  -0.01    -0.00   0.00  -0.00    -0.05   0.08   0.15
    24   8     0.00   0.00   0.00    -0.00  -0.00  -0.00    -0.02  -0.01   0.00
    25   1    -0.01  -0.02   0.02    -0.00  -0.00   0.00     0.30   0.08  -0.10
    26   1     0.23  -0.44   0.35     0.00   0.00  -0.00     0.20  -0.06   0.01
                     34                     35                     36
                      A                      A                      A
 Frequencies --    959.7532              1002.9763              1046.3767
 Red. masses --      1.2413                 1.7124                 1.5779
 Frc consts  --      0.6737                 1.0149                 1.0179
 IR Inten    --      2.8189                 6.1745                15.3924
  Atom  AN      X      Y      Z        X      Y      Z        X      Y      Z
     1   6    -0.00  -0.06   0.03     0.05   0.02   0.00     0.00  -0.00  -0.00
     2   1    -0.24   0.68  -0.46     0.04   0.09  -0.07     0.01  -0.01  -0.02
     3   6    -0.01   0.01  -0.00    -0.03  -0.01   0.01     0.02   0.04   0.03
     4   6     0.00   0.03  -0.05     0.00   0.09   0.11     0.02   0.02   0.00
     5   1     0.21  -0.27   0.14    -0.06   0.03   0.19     0.09   0.02  -0.02
     6   6    -0.02  -0.05   0.05     0.00   0.01  -0.01    -0.00  -0.00   0.00
     7   6    -0.02   0.05   0.01     0.07  -0.04  -0.11    -0.02  -0.02  -0.01
     8   6    -0.00   0.00  -0.02    -0.01  -0.03  -0.03    -0.04  -0.01   0.03
     9   6     0.01  -0.01   0.00    -0.00  -0.00   0.00    -0.00   0.00  -0.00
    10   1    -0.01  -0.04   0.06     0.00   0.00  -0.00    -0.00  -0.00   0.00
    11   6    -0.00  -0.01  -0.00    -0.08  -0.00   0.06     0.08  -0.02  -0.08
    12   1    -0.01  -0.01  -0.01     0.12  -0.17  -0.24    -0.12   0.11   0.14
    13   1    -0.00   0.01   0.01     0.11  -0.08  -0.25    -0.09   0.06   0.19
    14   1    -0.01   0.00  -0.02     0.19   0.35   0.33    -0.18  -0.34  -0.35
    15   6    -0.01  -0.00   0.01    -0.06  -0.06  -0.04    -0.03  -0.07  -0.09
    16   1    -0.00   0.01   0.00    -0.07   0.17   0.22    -0.06   0.17   0.21
    17   1    -0.04   0.01   0.03    -0.07   0.11   0.30     0.00   0.09   0.26
    18   1    -0.01   0.02  -0.01     0.36   0.00  -0.27     0.45  -0.03  -0.35
    19   6    -0.01   0.01  -0.01     0.00  -0.00   0.00    -0.00   0.00  -0.00
    20   1    -0.03   0.01  -0.00     0.00  -0.00  -0.00     0.00   0.00  -0.00
    21  16    -0.00   0.00  -0.00    -0.00  -0.00   0.00     0.00  -0.00  -0.00
    22   7     0.04   0.01  -0.02    -0.00  -0.00   0.00     0.00  -0.00  -0.00
    23   6     0.01  -0.02   0.01     0.01  -0.01  -0.02    -0.03   0.06   0.11
    24   8     0.00   0.00  -0.00    -0.00   0.00   0.00    -0.02  -0.00   0.01
    25   1    -0.01   0.01  -0.00    -0.01  -0.00   0.00     0.27   0.08  -0.08
    26   1     0.14  -0.18   0.22     0.05  -0.13  -0.12    -0.09  -0.08  -0.06
                     37                     38                     39
                      A                      A                      A
 Frequencies --   1058.6520              1062.4407              1065.5292
 Red. masses --      1.4769                 1.7008                 1.4905
 Frc consts  --      0.9753                 1.1311                 0.9971
 IR Inten    --      3.1044                17.1644                 0.7505
  Atom  AN      X      Y      Z        X      Y      Z        X      Y      Z
     1   6     0.00  -0.00   0.00    -0.00  -0.01   0.00    -0.00   0.00   0.00
     2   1    -0.00   0.02  -0.01    -0.03   0.07  -0.05    -0.00  -0.00   0.01
     3   6    -0.05   0.09  -0.07     0.00  -0.01   0.01    -0.01   0.03  -0.03
     4   6     0.00  -0.01   0.01    -0.00   0.00  -0.00    -0.01   0.02  -0.02
     5   1    -0.03   0.03  -0.02     0.00  -0.01   0.00     0.07  -0.13   0.08
     6   6     0.00   0.00  -0.00     0.04  -0.01   0.01     0.00  -0.00   0.00
     7   6     0.01  -0.02   0.01    -0.00   0.00  -0.00     0.01  -0.01   0.01
     8   6    -0.02   0.03  -0.02    -0.00   0.01  -0.01     0.05  -0.10   0.07
     9   6    -0.01   0.00  -0.00    -0.11   0.07  -0.06    -0.01   0.00  -0.00
    10   1    -0.01   0.00   0.00    -0.19  -0.04   0.09    -0.02  -0.01   0.01
    11   6     0.05  -0.11   0.08    -0.00   0.01  -0.01     0.01  -0.04   0.03
    12   1    -0.26  -0.24  -0.49     0.02   0.03   0.05    -0.08  -0.09  -0.17
    13   1     0.13   0.53   0.32    -0.01  -0.05  -0.02     0.05   0.17   0.09
    14   1    -0.11   0.20  -0.18     0.01  -0.02   0.01    -0.02   0.09  -0.04
    15   6     0.02  -0.03   0.03     0.00  -0.01   0.01    -0.05   0.12  -0.07
    16   1     0.14   0.02  -0.16     0.03   0.01  -0.03    -0.40  -0.10   0.45
    17   1    -0.17   0.05   0.08    -0.04   0.01   0.02     0.51  -0.17  -0.27
    18   1    -0.06   0.08  -0.03    -0.01   0.02  -0.01     0.10  -0.24   0.16
    19   6     0.00   0.00  -0.00     0.01   0.05  -0.07     0.00   0.00  -0.01
    20   1     0.05  -0.00  -0.01     0.93  -0.08  -0.11     0.08  -0.01  -0.01
    21  16     0.00   0.00  -0.00     0.01   0.00  -0.01     0.00   0.00  -0.00
    22   7    -0.00  -0.01   0.01    -0.01  -0.09   0.13    -0.00  -0.01   0.01
    23   6     0.01  -0.02   0.01     0.00  -0.00   0.00    -0.00   0.01  -0.01
    24   8     0.00   0.00  -0.00     0.00   0.00   0.00    -0.00  -0.00   0.00
    25   1    -0.00   0.01  -0.00     0.00   0.00  -0.00    -0.01  -0.01   0.00
    26   1    -0.06   0.09  -0.08     0.01  -0.02   0.02    -0.01   0.06  -0.02
                     40                     41                     42
                      A                      A                      A
 Frequencies --   1092.1189              1159.1409              1184.1968
 Red. masses --      1.7112                 1.6449                 1.2608
 Frc consts  --      1.2025                 1.3022                 1.0417
 IR Inten    --     24.4292                 5.3245                 0.6887
  Atom  AN      X      Y      Z        X      Y      Z        X      Y      Z
     1   6    -0.11  -0.04  -0.02     0.00   0.01  -0.00    -0.02   0.04   0.07
     2   1    -0.05  -0.24   0.08     0.03  -0.07   0.03    -0.23   0.38   0.72
     3   6     0.03   0.02  -0.00    -0.00   0.00   0.00    -0.03  -0.04  -0.03
     4   6     0.09  -0.03  -0.09    -0.00   0.00   0.01     0.05  -0.00  -0.04
     5   1     0.44   0.11  -0.31    -0.04   0.01   0.01     0.31   0.08  -0.17
     6   6    -0.01  -0.01   0.01    -0.08   0.02  -0.02    -0.00   0.00   0.00
     7   6     0.02   0.08   0.11     0.00  -0.00  -0.00    -0.02  -0.04  -0.04
     8   6     0.03   0.01  -0.01    -0.00  -0.00  -0.00     0.04   0.01  -0.02
     9   6     0.00  -0.00   0.00     0.05  -0.10   0.13     0.00  -0.00   0.00
    10   1    -0.01  -0.02   0.03    -0.19  -0.47   0.71    -0.00  -0.01   0.01
    11   6    -0.06  -0.02   0.01     0.00  -0.00  -0.00     0.01   0.02   0.01
    12   1     0.05  -0.11  -0.14    -0.00   0.00  -0.00    -0.00   0.03   0.04
    13   1     0.05  -0.05  -0.14    -0.00   0.00   0.00    -0.00   0.03   0.04
    14   1     0.08   0.17   0.16    -0.00  -0.01  -0.01     0.01   0.01   0.01
    15   6    -0.06  -0.04  -0.01     0.00   0.00   0.00    -0.02  -0.00   0.01
    16   1    -0.05   0.11   0.12     0.00  -0.01  -0.01    -0.03   0.02   0.04
    17   1    -0.06   0.06   0.19    -0.01   0.00  -0.01    -0.02   0.01   0.05
    18   1     0.18   0.00  -0.15    -0.01   0.00   0.01     0.00  -0.00  -0.00
    19   6     0.00   0.00  -0.00     0.02   0.02  -0.04     0.00   0.00  -0.00
    20   1     0.03   0.00  -0.00     0.41  -0.04  -0.06     0.01  -0.00  -0.00
    21  16    -0.00   0.00  -0.00     0.01   0.00  -0.01     0.00   0.00  -0.00
    22   7     0.01  -0.00  -0.00    -0.03   0.08  -0.10    -0.00   0.00  -0.00
    23   6     0.02   0.01  -0.00     0.00   0.00   0.00     0.01  -0.01  -0.02
    24   8    -0.04  -0.02   0.00     0.00   0.00   0.00     0.01  -0.00  -0.01
    25   1     0.02  -0.00  -0.02     0.00   0.00  -0.00    -0.07  -0.02   0.02
    26   1     0.26   0.43   0.26    -0.02  -0.01  -0.02    -0.18  -0.24  -0.15
                     43                     44                     45
                      A                      A                      A
 Frequencies --   1223.4542              1252.3342              1305.9268
 Red. masses --      1.6462                 5.1035                 1.7900
 Frc consts  --      1.4518                 4.7158                 1.7986
 IR Inten    --    130.1166                13.9174                78.3478
  Atom  AN      X      Y      Z        X      Y      Z        X      Y      Z
     1   6    -0.01   0.02   0.04     0.15   0.06   0.01     0.04   0.01  -0.01
     2   1    -0.01   0.02   0.04     0.13   0.17  -0.08    -0.02   0.11   0.16
     3   6     0.02  -0.06  -0.09     0.02  -0.18  -0.26    -0.13  -0.09  -0.02
     4   6     0.03  -0.01  -0.04    -0.09  -0.07  -0.04     0.02   0.00  -0.01
     5   1    -0.36  -0.10   0.14     0.15  -0.01  -0.14    -0.17  -0.03   0.08
     6   6    -0.00   0.00   0.00     0.01   0.00  -0.00     0.01  -0.00  -0.00
     7   6    -0.03  -0.04  -0.03    -0.11  -0.03   0.03     0.03  -0.03  -0.06
     8   6     0.07  -0.04  -0.10    -0.17   0.10   0.27     0.01   0.03   0.03
     9   6     0.00   0.00  -0.00     0.00  -0.01   0.01     0.00  -0.01   0.01
    10   1    -0.00   0.00  -0.00    -0.00  -0.00   0.01     0.03   0.03  -0.05
    11   6     0.00   0.03   0.04    -0.01   0.05   0.08     0.05   0.03   0.00
    12   1     0.04   0.02   0.05     0.07   0.07   0.15    -0.09   0.10   0.12
    13   1     0.03   0.05   0.01     0.04   0.17   0.09    -0.07   0.03   0.16
    14   1     0.02   0.05   0.06     0.15   0.28   0.26     0.00  -0.02  -0.03
    15   6    -0.03   0.01   0.04     0.06  -0.03  -0.09    -0.00  -0.02  -0.02
    16   1    -0.04  -0.01   0.04     0.13   0.03  -0.15    -0.00   0.04   0.04
    17   1    -0.05   0.02   0.04     0.16  -0.06  -0.10     0.00   0.02   0.05
    18   1    -0.12   0.00   0.09     0.33   0.00  -0.25     0.02  -0.01  -0.03
    19   6     0.00   0.00  -0.00     0.00   0.00  -0.00    -0.01   0.00  -0.00
    20   1    -0.01   0.00   0.00     0.01  -0.00  -0.00     0.06  -0.01  -0.00
    21  16    -0.00  -0.00  -0.00     0.00  -0.00   0.00     0.00  -0.00   0.00
    22   7     0.00  -0.00   0.00    -0.01   0.01  -0.01    -0.01   0.01  -0.01
    23   6     0.01   0.05   0.05     0.20   0.11   0.01    -0.13  -0.03   0.04
    24   8    -0.07  -0.00   0.05    -0.11  -0.06  -0.01     0.08   0.02  -0.02
    25   1     0.76   0.22  -0.23    -0.10  -0.06  -0.01    -0.22  -0.05   0.08
    26   1     0.14   0.15   0.09     0.04   0.12   0.13     0.57   0.54   0.31
                     46                     47                     48
                      A                      A                      A
 Frequencies --   1319.2443              1327.5619              1377.7460
 Red. masses --      1.6996                 1.8550                 3.4923
 Frc consts  --      1.7428                 1.9262                 3.9057
 IR Inten    --      4.8778                10.7625                34.7826
  Atom  AN      X      Y      Z        X      Y      Z        X      Y      Z
     1   6    -0.00  -0.00  -0.01     0.03   0.04   0.04     0.07  -0.09  -0.17
     2   1    -0.02   0.01   0.05     0.10  -0.06  -0.17    -0.08   0.15   0.28
     3   6    -0.02  -0.01   0.01     0.01  -0.03  -0.05    -0.18  -0.05   0.06
     4   6     0.00  -0.01  -0.01    -0.00   0.04   0.06    -0.16  -0.03   0.09
     5   1    -0.13  -0.03   0.05     0.69   0.20  -0.25     0.15   0.04  -0.05
     6   6    -0.02   0.01  -0.01     0.01   0.00  -0.00    -0.01  -0.00  -0.00
     7   6     0.00  -0.00  -0.00     0.02  -0.01  -0.02     0.10   0.12   0.08
     8   6     0.02   0.02   0.01    -0.14  -0.08  -0.02     0.10   0.10   0.07
     9   6    -0.06   0.10  -0.12    -0.01   0.02  -0.02     0.00  -0.00  -0.00
    10   1    -0.35  -0.35   0.57    -0.07  -0.06   0.10     0.01   0.00  -0.00
    11   6     0.01  -0.00  -0.00     0.00   0.02   0.03     0.04   0.03   0.02
    12   1    -0.02   0.01   0.01     0.03  -0.01  -0.02    -0.10   0.03  -0.06
    13   1    -0.01   0.00   0.02     0.03  -0.00  -0.03    -0.04  -0.10   0.03
    14   1     0.01  -0.00  -0.00    -0.03  -0.01  -0.00    -0.12  -0.15  -0.14
    15   6    -0.01  -0.01  -0.00     0.05   0.03   0.00    -0.03  -0.01   0.00
    16   1    -0.00   0.02   0.02     0.01  -0.14  -0.09     0.04   0.11  -0.02
    17   1     0.00   0.01   0.03    -0.03  -0.04  -0.16     0.10  -0.02   0.06
    18   1     0.01  -0.00  -0.01    -0.05   0.00   0.05     0.09  -0.00  -0.06
    19   6     0.16  -0.03   0.01     0.03  -0.01   0.00    -0.00  -0.00   0.00
    20   1    -0.56   0.08   0.03    -0.10   0.02   0.00     0.01  -0.00   0.00
    21  16    -0.01   0.00   0.00    -0.00  -0.00   0.00    -0.00   0.00  -0.00
    22   7     0.03  -0.05   0.06    -0.00  -0.01   0.01     0.00   0.00   0.00
    23   6     0.01   0.01   0.01    -0.14  -0.07  -0.01     0.06  -0.10  -0.19
    24   8     0.00  -0.00  -0.01     0.05   0.04   0.03    -0.04   0.01   0.05
    25   1    -0.09  -0.03   0.02     0.41   0.15  -0.09     0.66   0.20  -0.20
    26   1     0.04   0.05   0.03     0.05   0.03  -0.00    -0.03  -0.03  -0.02
                     49                     50                     51
                      A                      A                      A
 Frequencies --   1425.8697              1429.7479              1466.6625
 Red. masses --      1.2827                 1.3069                 2.3818
 Frc consts  --      1.5365                 1.5740                 3.0187
 IR Inten    --      4.6539                 2.7365               139.7511
  Atom  AN      X      Y      Z        X      Y      Z        X      Y      Z
     1   6     0.01  -0.01  -0.02     0.01  -0.01  -0.01     0.03   0.03   0.00
     2   1    -0.00   0.01   0.02    -0.01   0.01   0.02     0.05  -0.01   0.04
     3   6    -0.02   0.01   0.03     0.02  -0.01  -0.03    -0.10   0.01   0.09
     4   6    -0.02   0.00   0.02    -0.00  -0.01  -0.01    -0.01   0.01   0.03
     5   1     0.09   0.03  -0.03    -0.03  -0.01   0.00     0.22   0.07  -0.07
     6   6    -0.00   0.00  -0.00    -0.00   0.00  -0.00    -0.10   0.03  -0.02
     7   6     0.01   0.01   0.01    -0.01   0.01   0.01    -0.01  -0.04  -0.04
     8   6    -0.00  -0.01  -0.01    -0.01   0.02   0.04    -0.05  -0.08  -0.08
     9   6     0.00   0.00  -0.00     0.00   0.00  -0.00     0.07   0.03  -0.05
    10   1     0.00  -0.00  -0.00     0.00   0.00  -0.00     0.05  -0.04   0.05
    11   6    -0.03  -0.09  -0.10     0.01   0.03   0.04     0.05   0.01  -0.02
    12   1     0.09   0.14   0.51    -0.01  -0.05  -0.18    -0.35   0.05  -0.15
    13   1    -0.07   0.46   0.28     0.04  -0.15  -0.11    -0.20  -0.31   0.13
    14   1     0.29   0.31   0.26    -0.11  -0.10  -0.09     0.03  -0.01  -0.02
    15   6     0.04  -0.00  -0.03     0.10  -0.02  -0.10     0.03   0.04   0.04
    16   1    -0.10  -0.06   0.18    -0.23  -0.05   0.52    -0.18  -0.39   0.02
    17   1    -0.17   0.10   0.07    -0.40   0.28   0.25    -0.36   0.02  -0.23
    18   1    -0.17  -0.01   0.08    -0.45  -0.03   0.18     0.14   0.03  -0.02
    19   6    -0.00  -0.00   0.00    -0.00  -0.00   0.00    -0.08  -0.01   0.04
    20   1     0.00  -0.00   0.00     0.00  -0.00   0.00     0.10  -0.05   0.04
    21  16    -0.00   0.00   0.00    -0.00   0.00   0.00    -0.00   0.00  -0.00
    22   7     0.00  -0.00   0.00     0.00  -0.00   0.00     0.08  -0.03   0.02
    23   6     0.02  -0.00  -0.01    -0.00  -0.00  -0.00     0.17   0.09   0.01
    24   8    -0.01   0.00   0.00    -0.00  -0.00  -0.00    -0.04  -0.03  -0.01
    25   1     0.08   0.02  -0.02    -0.02  -0.01   0.00    -0.08  -0.04   0.01
    26   1     0.00  -0.01  -0.01    -0.04  -0.02  -0.01     0.20   0.20   0.11
                     52                     53                     54
                      A                      A                      A
 Frequencies --   1474.5693              1490.4205              1495.9184
 Red. masses --      4.9165                 1.0449                 1.4183
 Frc consts  --      6.2985                 1.3676                 1.8700
 IR Inten    --     79.3696                 5.8176                 5.6835
  Atom  AN      X      Y      Z        X      Y      Z        X      Y      Z
     1   6     0.04  -0.01  -0.01    -0.00   0.00   0.01    -0.03   0.06   0.11
     2   1    -0.02   0.14   0.02     0.01  -0.01  -0.02     0.11  -0.17  -0.33
     3   6    -0.04   0.04   0.08    -0.00  -0.00   0.00    -0.06  -0.03   0.00
     4   6    -0.04   0.00   0.03    -0.00  -0.00  -0.00    -0.05  -0.04  -0.03
     5   1     0.19   0.04  -0.07     0.00   0.00  -0.01     0.18   0.00  -0.14
     6   6     0.28  -0.08   0.05    -0.00   0.00  -0.00     0.01  -0.00   0.00
     7   6    -0.05  -0.04  -0.02     0.00  -0.00  -0.00     0.06   0.00  -0.03
     8   6    -0.01  -0.06  -0.07     0.01  -0.01   0.01     0.05   0.01  -0.02
     9   6    -0.22  -0.08   0.16     0.00   0.00  -0.00    -0.01  -0.00   0.01
    10   1    -0.12   0.15  -0.18     0.00   0.00   0.00    -0.00   0.01  -0.01
    11   6     0.02   0.00  -0.01     0.00  -0.00  -0.00     0.04   0.01  -0.01
    12   1    -0.19   0.01  -0.12    -0.03   0.01   0.01    -0.36   0.08  -0.06
    13   1    -0.10  -0.20   0.04    -0.00  -0.01  -0.00    -0.23  -0.24   0.20
    14   1    -0.01  -0.04  -0.04    -0.00   0.02  -0.01     0.14   0.13   0.11
    15   6     0.02   0.03   0.03     0.01  -0.04   0.03    -0.02  -0.02  -0.02
    16   1    -0.14  -0.26   0.06     0.01   0.32   0.36     0.15   0.34   0.01
    17   1    -0.27   0.03  -0.14    -0.01  -0.24  -0.44     0.30   0.03   0.27
    18   1     0.06   0.02  -0.00    -0.23   0.57  -0.37    -0.27  -0.07   0.14
    19   6     0.22   0.05  -0.12    -0.00  -0.00   0.00     0.01   0.00  -0.01
    20   1    -0.30   0.14  -0.14     0.00   0.00   0.00    -0.01   0.01  -0.01
    21  16     0.00  -0.00   0.00    -0.00   0.00   0.00    -0.00   0.00  -0.00
    22   7    -0.22   0.08  -0.06     0.00  -0.00  -0.00    -0.01   0.00  -0.00
    23   6     0.13   0.06  -0.00     0.00   0.00  -0.00     0.02   0.02   0.01
    24   8    -0.04  -0.02  -0.00    -0.00  -0.00   0.00    -0.00  -0.01  -0.01
    25   1    -0.05  -0.03   0.00     0.00   0.00  -0.00    -0.02  -0.01   0.01
    26   1     0.19   0.21   0.15    -0.00  -0.00  -0.01    -0.03  -0.11  -0.11
                     55                     56                     57
                      A                      A                      A
 Frequencies --   1502.2152              1519.6630              1527.7601
 Red. masses --      1.0424                 1.4452                 1.5374
 Frc consts  --      1.3859                 1.9665                 2.1143
 IR Inten    --      5.9609                46.8205                12.5605
  Atom  AN      X      Y      Z        X      Y      Z        X      Y      Z
     1   6    -0.00  -0.00  -0.00     0.05  -0.01  -0.05    -0.02   0.06   0.10
     2   1    -0.00  -0.00  -0.00    -0.01   0.12   0.16     0.11  -0.14  -0.29
     3   6     0.01  -0.01   0.01     0.01   0.05   0.05    -0.10  -0.03   0.03
     4   6     0.00   0.00   0.00    -0.02   0.02   0.05    -0.06  -0.05  -0.03
     5   1    -0.00   0.00   0.00     0.16   0.06  -0.03     0.15  -0.01  -0.13
     6   6    -0.00   0.00  -0.00     0.00   0.00  -0.00     0.00   0.00  -0.00
     7   6     0.00   0.00   0.00    -0.07  -0.05  -0.02     0.05  -0.01  -0.04
     8   6    -0.00   0.00  -0.00    -0.05  -0.06  -0.05     0.08   0.03  -0.01
     9   6    -0.00  -0.00   0.00     0.02   0.01  -0.02     0.00   0.00  -0.00
    10   1     0.00   0.00  -0.00     0.00  -0.03   0.04    -0.00  -0.00   0.00
    11   6     0.02  -0.04   0.03    -0.02  -0.01   0.00    -0.02   0.01   0.02
    12   1    -0.33   0.19   0.34     0.22  -0.05   0.02     0.50  -0.06   0.15
    13   1     0.27  -0.11  -0.38     0.15   0.13  -0.14     0.31   0.37  -0.22
    14   1    -0.22   0.55  -0.39    -0.12  -0.13  -0.12    -0.24  -0.26  -0.23
    15   6    -0.00   0.00  -0.00    -0.00  -0.02  -0.02    -0.01   0.00   0.01
    16   1     0.00  -0.01  -0.01     0.22   0.41  -0.02    -0.08  -0.11   0.04
    17   1     0.00   0.01   0.01     0.41  -0.01   0.23    -0.14   0.02  -0.03
    18   1     0.01  -0.02   0.01    -0.38  -0.04   0.19     0.09   0.01  -0.04
    19   6     0.00   0.00  -0.00    -0.02  -0.01   0.01    -0.00  -0.00   0.00
    20   1    -0.00   0.00  -0.00     0.02  -0.01   0.02    -0.00  -0.00   0.00
    21  16    -0.00  -0.00   0.00     0.00  -0.00  -0.00    -0.00   0.00  -0.00
    22   7     0.00  -0.00   0.00    -0.00  -0.00   0.00    -0.00  -0.00   0.00
    23   6    -0.00   0.00   0.00     0.07   0.03  -0.00     0.04   0.02   0.00
    24   8     0.00   0.00  -0.00    -0.02  -0.01   0.00    -0.01  -0.01  -0.01
    25   1     0.01  -0.03   0.02    -0.04  -0.02   0.01    -0.09  -0.03   0.02
    26   1    -0.01  -0.00  -0.01     0.17   0.22   0.16     0.06  -0.01  -0.05
                     58                     59                     60
                      A                      A                      A
 Frequencies --   1554.3702              1628.2281              1639.3918
 Red. masses --      5.5400                 6.0832                 5.4675
 Frc consts  --      7.8862                 9.5020                 8.6578
 IR Inten    --     64.5995                 3.1103                34.7993
  Atom  AN      X      Y      Z        X      Y      Z        X      Y      Z
     1   6     0.00  -0.01   0.02     0.07  -0.10  -0.19    -0.11  -0.04  -0.02
     2   1    -0.02   0.06  -0.09    -0.04   0.07   0.13    -0.10  -0.13   0.06
     3   6     0.03   0.02  -0.00     0.02  -0.14  -0.20    -0.25  -0.14  -0.02
     4   6    -0.04  -0.02  -0.00    -0.20  -0.02   0.15     0.28   0.11  -0.06
     5   1     0.04  -0.02  -0.04     0.35   0.10  -0.11    -0.34  -0.02   0.24
     6   6     0.31  -0.07   0.03    -0.00  -0.00  -0.00     0.08  -0.04   0.03
     7   6    -0.02  -0.01  -0.00     0.09   0.16   0.13     0.22   0.17   0.08
     8   6     0.06   0.03   0.00     0.14  -0.08  -0.22    -0.27  -0.15  -0.01
     9   6     0.23   0.11  -0.22    -0.00  -0.00   0.00     0.01   0.01  -0.01
    10   1    -0.05  -0.39   0.55     0.00   0.00  -0.00    -0.01  -0.03   0.04
    11   6     0.00  -0.00  -0.00    -0.00   0.03   0.03     0.02   0.02   0.02
    12   1    -0.09   0.01  -0.03     0.06  -0.01  -0.02     0.15   0.02   0.09
    13   1    -0.06  -0.08   0.03     0.04   0.02  -0.03     0.09   0.14  -0.02
    14   1     0.04   0.05   0.04    -0.00   0.01   0.03    -0.10  -0.13  -0.11
    15   6    -0.00   0.00   0.01    -0.03   0.01   0.04     0.03   0.01  -0.02
    16   1    -0.07  -0.10   0.03    -0.02  -0.02  -0.00     0.11   0.12  -0.07
    17   1    -0.12   0.01  -0.04    -0.02  -0.01  -0.03     0.19  -0.02   0.02
    18   1     0.09   0.01  -0.05    -0.04   0.02   0.04    -0.19  -0.02   0.11
    19   6    -0.23  -0.07   0.15     0.00   0.00  -0.00    -0.01  -0.00   0.01
    20   1     0.09  -0.15   0.18    -0.00   0.00  -0.00    -0.01  -0.01   0.01
    21  16     0.01   0.00  -0.00    -0.00  -0.00   0.00     0.00   0.00  -0.00
    22   7    -0.29   0.07  -0.03     0.00  -0.00   0.00    -0.06   0.02  -0.01
    23   6    -0.02  -0.01  -0.00    -0.09   0.19   0.33     0.12   0.07   0.02
    24   8    -0.00  -0.00  -0.00     0.03  -0.02  -0.05    -0.01  -0.01  -0.00
    25   1     0.01  -0.00  -0.00    -0.47  -0.15   0.13    -0.02  -0.01   0.01
    26   1     0.00   0.00   0.02    -0.23  -0.20  -0.11    -0.19  -0.28  -0.23
                     61                     62                     63
                      A                      A                      A
 Frequencies --   3012.7926              3044.8857              3061.7560
 Red. masses --      1.0415                 1.0360                 1.1013
 Frc consts  --      5.5696                 5.6592                 6.0826
 IR Inten    --     32.5350                27.3653                20.5471
  Atom  AN      X      Y      Z        X      Y      Z        X      Y      Z
     1   6    -0.00  -0.00  -0.00    -0.00  -0.00   0.00    -0.00   0.00   0.00
     2   1     0.00  -0.00  -0.00    -0.00   0.00   0.00     0.00   0.00  -0.00
     3   6    -0.00  -0.00  -0.00     0.00   0.00   0.00     0.00  -0.00   0.00
     4   6    -0.00  -0.00   0.00     0.00  -0.00  -0.00    -0.00  -0.00  -0.00
     5   1     0.00   0.00   0.00     0.00   0.01   0.01    -0.00   0.00  -0.00
     6   6    -0.00   0.00  -0.00    -0.00   0.00  -0.00     0.00  -0.00   0.00
     7   6     0.00   0.00   0.00    -0.00  -0.00   0.00     0.00  -0.00   0.00
     8   6     0.00  -0.00  -0.00     0.00   0.00  -0.00     0.00  -0.00   0.00
     9   6     0.00  -0.00   0.00     0.00  -0.00   0.00    -0.00   0.00  -0.00
    10   1    -0.00   0.00  -0.00    -0.00   0.00  -0.00     0.00  -0.00   0.00
    11   6    -0.04  -0.03  -0.03    -0.00  -0.00  -0.00     0.03  -0.07   0.05
    12   1     0.14   0.59  -0.25     0.00   0.00  -0.00     0.18   0.65  -0.26
    13   1     0.52  -0.23   0.39     0.01  -0.00   0.00    -0.53   0.21  -0.38
    14   1    -0.24   0.03   0.17    -0.00   0.00   0.00    -0.01  -0.01   0.03
    15   6     0.00   0.00  -0.00    -0.04   0.00   0.03    -0.00   0.00   0.00
    16   1    -0.00   0.00  -0.00     0.50  -0.25   0.25     0.00  -0.00   0.00
    17   1    -0.00  -0.01   0.00     0.16   0.54  -0.25     0.00   0.00  -0.00
    18   1     0.00   0.00   0.00    -0.17  -0.30  -0.35    -0.00  -0.00  -0.00
    19   6    -0.00  -0.00   0.00    -0.00  -0.00   0.00     0.00  -0.00  -0.00
    20   1     0.00  -0.00   0.00     0.00  -0.00   0.00    -0.00   0.00   0.00
    21  16     0.00  -0.00   0.00     0.00  -0.00   0.00    -0.00   0.00  -0.00
    22   7     0.00  -0.00   0.00     0.00  -0.00   0.00    -0.00  -0.00  -0.00
    23   6    -0.00  -0.00   0.00    -0.00  -0.00  -0.00    -0.00   0.00  -0.00
    24   8     0.00   0.00  -0.00     0.00   0.00  -0.00    -0.00   0.00  -0.00
    25   1     0.01   0.00   0.00     0.00   0.00   0.00     0.00  -0.01   0.00
    26   1     0.00  -0.00  -0.00     0.00  -0.00  -0.00     0.00  -0.00   0.00
                     64                     65                     66
                      A                      A                      A
 Frequencies --   3103.4791              3130.4293              3133.0744
 Red. masses --      1.1006                 1.0961                 1.1034
 Frc consts  --      6.2458                 6.3285                 6.3815
 IR Inten    --     13.8042                 8.4733                14.5582
  Atom  AN      X      Y      Z        X      Y      Z        X      Y      Z
     1   6    -0.00  -0.00  -0.00    -0.00  -0.00   0.00    -0.00  -0.00  -0.00
     2   1     0.00   0.00   0.00     0.01   0.00   0.00     0.01   0.00   0.00
     3   6     0.00  -0.00   0.00    -0.00  -0.00  -0.00    -0.00  -0.00   0.00
     4   6     0.00  -0.00   0.00     0.00  -0.00  -0.00     0.00   0.00   0.00
     5   1     0.00  -0.00  -0.00     0.00   0.00   0.00    -0.00  -0.02  -0.03
     6   6     0.00  -0.00   0.00     0.00  -0.00   0.00     0.00  -0.00   0.00
     7   6    -0.00  -0.00  -0.00     0.00  -0.00  -0.00     0.00   0.00  -0.00
     8   6     0.00  -0.00   0.00    -0.00  -0.00   0.00    -0.00  -0.00   0.00
     9   6    -0.00   0.00  -0.00    -0.00   0.00  -0.00    -0.00   0.00  -0.00
    10   1     0.00  -0.00  -0.00     0.00  -0.00   0.00     0.00  -0.00   0.00
    11   6     0.00  -0.00   0.00    -0.08  -0.00   0.05    -0.00  -0.00   0.00
    12   1     0.00   0.00  -0.00     0.03   0.19  -0.07     0.00   0.01  -0.00
    13   1    -0.00   0.00  -0.00     0.13  -0.06   0.12     0.01  -0.00   0.00
    14   1    -0.00  -0.00   0.00     0.75  -0.10  -0.58     0.03  -0.00  -0.02
    15   6     0.03  -0.07   0.05     0.00   0.00   0.00    -0.05  -0.06  -0.05
    16   1    -0.59   0.28  -0.29    -0.01   0.01  -0.00     0.26  -0.15   0.13
    17   1     0.20   0.60  -0.28    -0.00  -0.01   0.01     0.08   0.30  -0.16
    18   1     0.00  -0.02   0.00    -0.01  -0.02  -0.02     0.29   0.53   0.63
    19   6    -0.00  -0.00   0.00    -0.00   0.00  -0.00     0.00   0.00  -0.00
    20   1    -0.00   0.00  -0.00    -0.00   0.00  -0.00    -0.00   0.00  -0.00
    21  16    -0.00  -0.00   0.00     0.00   0.00  -0.00    -0.00   0.00  -0.00
    22   7    -0.00   0.00   0.00    -0.00   0.00  -0.00    -0.00   0.00   0.00
    23   6    -0.00   0.00  -0.00    -0.00  -0.00  -0.00    -0.00  -0.00   0.00
    24   8    -0.00   0.00  -0.00     0.00   0.00  -0.00     0.00   0.00  -0.00
    25   1     0.00   0.00   0.00     0.00   0.00   0.00     0.00   0.00   0.00
    26   1    -0.00   0.00   0.00    -0.02   0.01   0.03    -0.00   0.00   0.00
                     67                     68                     69
                      A                      A                      A
 Frequencies --   3183.7310              3191.5045              3206.4165
 Red. masses --      1.0873                 1.0907                 1.0951
 Frc consts  --      6.4931                 6.5453                 6.6332
 IR Inten    --      0.5198                13.4109                 9.6407
  Atom  AN      X      Y      Z        X      Y      Z        X      Y      Z
     1   6    -0.04  -0.02  -0.00     0.01   0.01   0.00    -0.07  -0.03  -0.01
     2   1     0.51   0.20   0.06    -0.17  -0.07  -0.02     0.75   0.30   0.09
     3   6    -0.00  -0.00  -0.00    -0.00  -0.00  -0.00     0.00   0.00   0.00
     4   6     0.01   0.02   0.03    -0.02  -0.04  -0.05    -0.01  -0.03  -0.03
     5   1    -0.08  -0.26  -0.31     0.16   0.50   0.59     0.09   0.28   0.34
     6   6     0.00   0.00  -0.00     0.00   0.00  -0.00     0.00  -0.00   0.00
     7   6     0.04  -0.01  -0.04     0.04  -0.01  -0.04    -0.02   0.01   0.02
     8   6    -0.00  -0.00   0.00     0.00   0.00  -0.00     0.00   0.00  -0.00
     9   6     0.00  -0.00   0.00     0.00  -0.00  -0.00    -0.00   0.00  -0.00
    10   1    -0.00   0.00  -0.00    -0.00   0.00  -0.00     0.00  -0.00   0.00
    11   6     0.00  -0.00  -0.00     0.00  -0.00  -0.00    -0.00   0.00   0.00
    12   1    -0.00  -0.00   0.00    -0.00  -0.00   0.00    -0.00  -0.00  -0.00
    13   1    -0.00   0.00  -0.00    -0.00   0.00  -0.00    -0.00  -0.00  -0.00
    14   1    -0.02   0.00   0.02    -0.01   0.00   0.01     0.01  -0.00  -0.01
    15   6     0.00   0.00   0.00    -0.00  -0.00  -0.00    -0.00  -0.00  -0.00
    16   1    -0.00   0.00  -0.00     0.00  -0.00   0.00    -0.00  -0.00   0.00
    17   1    -0.00  -0.00   0.00     0.00   0.01  -0.00    -0.00   0.00   0.00
    18   1    -0.00  -0.01  -0.01     0.01   0.02   0.02     0.00   0.01   0.01
    19   6    -0.00   0.00  -0.00     0.00   0.00  -0.00    -0.00  -0.00   0.00
    20   1    -0.00  -0.00   0.00    -0.00  -0.00   0.00    -0.00   0.00  -0.00
    21  16    -0.00   0.00  -0.00    -0.00  -0.00   0.00    -0.00   0.00  -0.00
    22   7     0.00  -0.00   0.00    -0.00   0.00   0.00    -0.00   0.00  -0.00
    23   6    -0.00  -0.00   0.00    -0.00   0.00   0.00     0.00   0.00   0.00
    24   8     0.00   0.00  -0.00     0.00  -0.00  -0.00    -0.00  -0.00  -0.00
    25   1     0.00   0.00   0.00    -0.00  -0.00  -0.00     0.00  -0.00   0.00
    26   1    -0.50   0.12   0.51    -0.40   0.10   0.41     0.24  -0.06  -0.25
                     70                     71                     72
                      A                      A                      A
 Frequencies --   3218.1047              3262.9665              3834.2380
 Red. masses --      1.0903                 1.0989                 1.0656
 Frc consts  --      6.6530                 6.8934                 9.2299
 IR Inten    --     13.6772                 2.9118                68.2682
  Atom  AN      X      Y      Z        X      Y      Z        X      Y      Z
     1   6     0.00   0.00   0.00    -0.00  -0.00  -0.00     0.00   0.00  -0.00
     2   1    -0.00  -0.00  -0.00     0.00   0.00   0.00    -0.00  -0.00   0.00
     3   6     0.00  -0.00  -0.00     0.00  -0.00  -0.00     0.00   0.00   0.00
     4   6    -0.00   0.00   0.00     0.00   0.00  -0.00    -0.00  -0.00  -0.00
     5   1    -0.00  -0.00  -0.00     0.00   0.00   0.00    -0.00   0.00   0.00
     6   6     0.00  -0.00   0.00     0.00  -0.00   0.00     0.00  -0.00   0.00
     7   6     0.00  -0.00  -0.00    -0.00   0.00   0.00    -0.00  -0.00  -0.00
     8   6    -0.00   0.00   0.00    -0.00  -0.00  -0.00     0.00   0.00   0.00
     9   6    -0.08   0.02  -0.01    -0.02   0.00  -0.00     0.00  -0.00  -0.00
    10   1     0.90  -0.30   0.18     0.21  -0.07   0.04    -0.00   0.00  -0.00
    11   6    -0.00  -0.00  -0.00    -0.00  -0.00  -0.00     0.00   0.00   0.00
    12   1     0.00   0.00  -0.00     0.00   0.00  -0.00     0.00  -0.00   0.00
    13   1     0.00  -0.00   0.00     0.00  -0.00   0.00    -0.00   0.00  -0.01
    14   1    -0.00   0.00   0.00    -0.00  -0.00  -0.00    -0.00  -0.00  -0.00
    15   6    -0.00   0.00   0.00    -0.00  -0.00   0.00     0.00   0.00   0.00
    16   1     0.00  -0.00   0.00     0.00  -0.00   0.00    -0.00   0.00  -0.00
    17   1     0.00   0.00  -0.00     0.00   0.00  -0.00    -0.00  -0.00   0.00
    18   1    -0.00  -0.00  -0.00    -0.00  -0.00  -0.00     0.00   0.00  -0.00
    19   6     0.00  -0.01   0.01     0.01   0.05  -0.07     0.00   0.00  -0.00
    20   1     0.01   0.14  -0.19    -0.05  -0.56   0.79    -0.00   0.00  -0.00
    21  16     0.00  -0.00   0.00     0.00  -0.00   0.00    -0.00   0.00  -0.00
    22   7    -0.00  -0.00   0.00     0.00  -0.00   0.00    -0.00   0.00  -0.00
    23   6    -0.00  -0.00   0.00    -0.00  -0.00   0.00     0.00  -0.00  -0.00
    24   8     0.00   0.00  -0.00     0.00   0.00  -0.00    -0.01  -0.04  -0.05
    25   1    -0.00   0.00   0.00    -0.00   0.00   0.00     0.12   0.57   0.81
    26   1    -0.00   0.00   0.00     0.00  -0.00  -0.00     0.00   0.00  -0.00

 -------------------
 - Thermochemistry -
 -------------------
 Temperature   298.150 Kelvin.  Pressure   1.00000 Atm.
 Atom     1 has atomic number  6 and mass  12.00000
 Atom     2 has atomic number  1 and mass   1.00783
 Atom     3 has atomic number  6 and mass  12.00000
 Atom     4 has atomic number  6 and mass  12.00000
 Atom     5 has atomic number  1 and mass   1.00783
 Atom     6 has atomic number  6 and mass  12.00000
 Atom     7 has atomic number  6 and mass  12.00000
 Atom     8 has atomic number  6 and mass  12.00000
 Atom     9 has atomic number  6 and mass  12.00000
 Atom    10 has atomic number  1 and mass   1.00783
 Atom    11 has atomic number  6 and mass  12.00000
 Atom    12 has atomic number  1 and mass   1.00783
 Atom    13 has atomic number  1 and mass   1.00783
 Atom    14 has atomic number  1 and mass   1.00783
 Atom    15 has atomic number  6 and mass  12.00000
 Atom    16 has atomic number  1 and mass   1.00783
 Atom    17 has atomic number  1 and mass   1.00783
 Atom    18 has atomic number  1 and mass   1.00783
 Atom    19 has atomic number  6 and mass  12.00000
 Atom    20 has atomic number  1 and mass   1.00783
 Atom    21 has atomic number 16 and mass  31.97207
 Atom    22 has atomic number  7 and mass  14.00307
 Atom    23 has atomic number  6 and mass  12.00000
 Atom    24 has atomic number  8 and mass  15.99491
 Atom    25 has atomic number  1 and mass   1.00783
 Atom    26 has atomic number  1 and mass   1.00783
 Molecular mass:   206.06396 amu.
 Principal axes and moments of inertia in atomic units:
                           1         2         3
     Eigenvalues --  1784.961814641.503155001.05200
           X            0.39147  -0.29819   0.87054
           Y            0.76575   0.63018  -0.12849
           Z           -0.51028   0.71691   0.47504
 This molecule is an asymmetric top.
 Rotational symmetry number  1.
 Warning -- assumption of classical behavior for rotation
           may cause significant error
 Rotational temperatures (Kelvin)      0.04852     0.01866     0.01732
 Rotational constants (GHZ):           1.01108     0.38883     0.36087
    1 imaginary frequencies ignored.
 Zero-point vibrational energy     533358.7 (Joules/Mol)
                                  127.47580 (Kcal/Mol)
 Warning -- explicit consideration of  21 degrees of freedom as
           vibrations may cause significant error
 Vibrational temperatures:     28.36    42.67    64.92   161.08   166.91
          (Kelvin)            191.79   194.21   230.72   363.79   408.59
                              414.87   462.35   488.46   659.10   705.55
                              709.13   716.88   724.27   796.82   809.24
                              836.56   975.41   985.04  1037.03  1049.43
                             1150.35  1188.84  1209.45  1228.41  1261.17
                             1271.89  1328.91  1380.87  1443.06  1505.50
                             1523.16  1528.62  1533.06  1571.32  1667.75
                             1703.80  1760.28  1801.83  1878.94  1898.10
                             1910.07  1982.27  2051.51  2057.09  2110.20
                             2121.58  2144.38  2152.29  2161.35  2186.46
                             2198.11  2236.39  2342.66  2358.72  4334.74
                             4380.91  4405.18  4465.21  4503.99  4507.80
                             4580.68  4591.86  4613.32  4630.13  4694.68
                             5516.61
 
 Zero-point correction=                           0.203146 (Hartree/Particle)
 Thermal correction to Energy=                    0.217096
 Thermal correction to Enthalpy=                  0.218040
 Thermal correction to Gibbs Free Energy=         0.159531
 Sum of electronic and zero-point Energies=           -954.299372
 Sum of electronic and thermal Energies=              -954.285422
 Sum of electronic and thermal Enthalpies=            -954.284478
 Sum of electronic and thermal Free Energies=         -954.342987
 
                     E (Thermal)             CV                S
                      KCal/Mol        Cal/Mol-Kelvin    Cal/Mol-Kelvin
 Total                  136.230             51.405            123.144
 Electronic               0.000              0.000              1.377
 Translational            0.889              2.981             41.873
 Rotational               0.889              2.981             32.094
 Vibrational            134.452             45.443             47.799
 Vibration     1          0.593              1.986              6.663
 Vibration     2          0.593              1.984              5.852
 Vibration     3          0.595              1.979              5.021
 Vibration     4          0.607              1.940              3.235
 Vibration     5          0.608              1.936              3.166
 Vibration     6          0.613              1.920              2.898
 Vibration     7          0.613              1.918              2.874
 Vibration     8          0.622              1.891              2.546
 Vibration     9          0.664              1.758              1.711
 Vibration    10          0.682              1.703              1.510
 Vibration    11          0.685              1.695              1.484
 Vibration    12          0.707              1.633              1.303
 Vibration    13          0.719              1.597              1.215
 Vibration    14          0.816              1.343              0.772
 Vibration    15          0.846              1.271              0.683
 Vibration    16          0.849              1.266              0.676
 Vibration    17          0.854              1.254              0.662
 Vibration    18          0.859              1.242              0.650
 Vibration    19          0.909              1.131              0.536
 Vibration    20          0.918              1.113              0.519
 Vibration    21          0.938              1.071              0.483
                       Q            Log10(Q)             Ln(Q)
 Total Bot       0.417935D-73        -73.378891       -168.961140
 Total V=0       0.115219D+21         20.061523         46.193363
 Vib (Bot)       0.780014D-88        -88.107898       -202.875932
 Vib (Bot)    1  0.105109D+02          1.021640          2.352412
 Vib (Bot)    2  0.698220D+01          0.843992          1.943364
 Vib (Bot)    3  0.458382D+01          0.661228          1.522533
 Vib (Bot)    4  0.182862D+01          0.262122          0.603559
 Vib (Bot)    5  0.176316D+01          0.246292          0.567109
 Vib (Bot)    6  0.152812D+01          0.184158          0.424040
 Vib (Bot)    7  0.150839D+01          0.178514          0.411044
 Vib (Bot)    8  0.126055D+01          0.100559          0.231545
 Vib (Bot)    9  0.770843D+00         -0.113034         -0.260270
 Vib (Bot)   10  0.675578D+00         -0.170324         -0.392186
 Vib (Bot)   11  0.663787D+00         -0.177972         -0.409795
 Vib (Bot)   12  0.584500D+00         -0.233216         -0.536999
 Vib (Bot)   13  0.547121D+00         -0.261917         -0.603085
 Vib (Bot)   14  0.371875D+00         -0.429603         -0.989198
 Vib (Bot)   15  0.338005D+00         -0.471077         -1.084695
 Vib (Bot)   16  0.335567D+00         -0.474220         -1.091932
 Vib (Bot)   17  0.330364D+00         -0.481007         -1.107560
 Vib (Bot)   18  0.325508D+00         -0.487438         -1.122368
 Vib (Bot)   19  0.282326D+00         -0.549249         -1.264692
 Vib (Bot)   20  0.275673D+00         -0.559605         -1.288539
 Vib (Bot)   21  0.261701D+00         -0.582194         -1.340551
 Vib (V=0)       0.215038D+06          5.332516         12.278571
 Vib (V=0)    1  0.110228D+02          1.042291          2.399964
 Vib (V=0)    2  0.750008D+01          0.875066          2.014913
 Vib (V=0)    3  0.511101D+01          0.708507          1.631397
 Vib (V=0)    4  0.239574D+01          0.379440          0.873692
 Vib (V=0)    5  0.233269D+01          0.367857          0.847021
 Vib (V=0)    6  0.210784D+01          0.323838          0.745665
 Vib (V=0)    7  0.208910D+01          0.319960          0.736735
 Vib (V=0)    8  0.185609D+01          0.268599          0.618471
 Vib (V=0)    9  0.141880D+01          0.151922          0.349814
 Vib (V=0)   10  0.134048D+01          0.127260          0.293027
 Vib (V=0)   11  0.133103D+01          0.124188          0.285954
 Vib (V=0)   12  0.126918D+01          0.103524          0.238372
 Vib (V=0)   13  0.124118D+01          0.093833          0.216059
 Vib (V=0)   14  0.112313D+01          0.050430          0.116119
 Vib (V=0)   15  0.110353D+01          0.042784          0.098513
 Vib (V=0)   16  0.110217D+01          0.042248          0.097279
 Vib (V=0)   17  0.109928D+01          0.041110          0.094658
 Vib (V=0)   18  0.109662D+01          0.040056          0.092233
 Vib (V=0)   19  0.107420D+01          0.031086          0.071578
 Vib (V=0)   20  0.107096D+01          0.029773          0.068556
 Vib (V=0)   21  0.106435D+01          0.027083          0.062362
 Electronic      0.200000D+01          0.301030          0.693147
 Translational   0.116267D+09          8.065457         18.571401
 Rotational      0.230420D+07          6.362520         14.650244
 -------------------------------------------------------------------
 Center     Atomic                   Forces (Hartrees/Bohr)
 Number     Number              X              Y              Z
 -------------------------------------------------------------------
      1        6          -0.000001108   -0.000007576    0.000004296
      2        1          -0.000001306   -0.000000152   -0.000000219
      3        6          -0.000002503   -0.000000497    0.000000745
      4        6           0.000004291   -0.000000785   -0.000003594
      5        1          -0.000000366    0.000000183   -0.000000163
      6        6          -0.000000632    0.000002636   -0.000001078
      7        6           0.000002180    0.000004584    0.000004125
      8        6          -0.000001721   -0.000000981   -0.000000999
      9        6           0.000000148    0.000000323   -0.000000586
     10        1           0.000000136    0.000000185   -0.000000201
     11        6           0.000000038   -0.000000057   -0.000000003
     12        1          -0.000000037    0.000000046   -0.000000023
     13        1           0.000000325    0.000000093   -0.000000227
     14        1           0.000000238   -0.000000106    0.000000186
     15        6          -0.000000436   -0.000000029   -0.000000189
     16        1          -0.000000243   -0.000000050   -0.000000229
     17        1          -0.000000251    0.000000004   -0.000000119
     18        1          -0.000000367    0.000000038   -0.000000182
     19        6          -0.000000061    0.000000573   -0.000000378
     20        1           0.000000220    0.000000149    0.000000126
     21       16           0.000000489    0.000000225   -0.000000618
     22        7          -0.000000879    0.000000306   -0.000000401
     23        6           0.000000747    0.000000163   -0.000000130
     24        8           0.000001218    0.000000523    0.000000007
     25        1          -0.000000077    0.000000035   -0.000000394
     26        1          -0.000000044    0.000000168    0.000000250
 -------------------------------------------------------------------
 Cartesian Forces:  Max     0.000007576 RMS     0.000001522
 FormGI is forming the generalized inverse of G from B-inverse, IUseBI=4.

 GradGradGradGradGradGradGradGradGradGradGradGradGradGradGradGradGradGrad
 Berny optimization.
 Internal  Forces:  Max     0.000005841 RMS     0.000000916
 Search for a saddle point.
 Step number   1 out of a maximum of    2
 All quantities printed in internal units (Hartrees-Bohrs-Radians)
 Swapping is turned off.
 Second derivative matrix not updated -- analytic derivatives used.
 ITU=  0
     Eigenvalues ---   -0.01612   0.00077   0.00127   0.00170   0.00314
     Eigenvalues ---    0.00548   0.01002   0.01368   0.01454   0.01516
     Eigenvalues ---    0.01614   0.01747   0.01866   0.02062   0.02506
     Eigenvalues ---    0.02622   0.02935   0.03531   0.03772   0.04282
     Eigenvalues ---    0.04844   0.05185   0.05744   0.05884   0.05917
     Eigenvalues ---    0.06044   0.06936   0.09194   0.11117   0.11808
     Eigenvalues ---    0.11867   0.12043   0.12286   0.12535   0.14447
     Eigenvalues ---    0.14661   0.14705   0.14872   0.15376   0.16924
     Eigenvalues ---    0.18663   0.18739   0.19204   0.19798   0.21074
     Eigenvalues ---    0.21693   0.23224   0.26666   0.31182   0.31791
     Eigenvalues ---    0.32592   0.33438   0.33514   0.33623   0.34279
     Eigenvalues ---    0.34687   0.34732   0.35638   0.36004   0.36095
     Eigenvalues ---    0.36556   0.37343   0.37416   0.40349   0.41715
     Eigenvalues ---    0.42657   0.45393   0.46910   0.48480   0.51636
     Eigenvalues ---    0.53206   0.58624
 Eigenvectors required to have negative eigenvalues:
                          R3        D1        D14       D2        D13
   1                   -0.87314   0.18086  -0.17884   0.15589  -0.15405
                          D15       D6        A6        D16       D5
   1                    0.12070  -0.11964   0.09615   0.09591  -0.09467
 Angle between quadratic step and forces= 100.78 degrees.
 Linear search not attempted -- option 19 set.
 Iteration  1 RMS(Cart)=  0.00016149 RMS(Int)=  0.00000001
 Iteration  2 RMS(Cart)=  0.00000001 RMS(Int)=  0.00000000
 Variable       Old X    -DE/DX   Delta X   Delta X   Delta X     New X
                                 (Linear)    (Quad)   (Total)
    R1        2.04946  -0.00000   0.00000  -0.00000  -0.00000   2.04946
    R2        2.67541  -0.00000   0.00000   0.00001   0.00001   2.67542
    R3        4.25724   0.00001   0.00000  -0.00024  -0.00024   4.25700
    R4        2.67476  -0.00001   0.00000   0.00001   0.00001   2.67477
    R5        2.62358   0.00000   0.00000  -0.00000  -0.00000   2.62357
    R6        2.85304   0.00000   0.00000   0.00000   0.00000   2.85304
    R7        2.66536  -0.00000   0.00000  -0.00000  -0.00000   2.66536
    R8        2.05152  -0.00000   0.00000  -0.00000  -0.00000   2.05152
    R9        2.61578   0.00000   0.00000  -0.00000  -0.00000   2.61578
   R10        3.34338   0.00000   0.00000   0.00001   0.00001   3.34340
   R11        2.41848   0.00000   0.00000   0.00001   0.00001   2.41849
   R12        2.05202  -0.00000   0.00000  -0.00000  -0.00000   2.05202
   R13        2.84493   0.00000   0.00000   0.00000   0.00000   2.84493
   R14        2.66863  -0.00000   0.00000   0.00000   0.00000   2.66863
   R15        2.04860   0.00000   0.00000   0.00000   0.00000   2.04860
   R16        2.57526  -0.00000   0.00000   0.00000   0.00000   2.57526
   R17        2.62528   0.00000   0.00000  -0.00000  -0.00000   2.62527
   R18        2.07577  -0.00000   0.00000  -0.00000  -0.00000   2.07577
   R19        2.07636   0.00000   0.00000  -0.00000  -0.00000   2.07636
   R20        2.06392  -0.00000   0.00000   0.00000   0.00000   2.06392
   R21        2.06973  -0.00000   0.00000  -0.00000  -0.00000   2.06973
   R22        2.06945   0.00000   0.00000   0.00000   0.00000   2.06945
   R23        2.06485  -0.00000   0.00000  -0.00000  -0.00000   2.06485
   R24        2.04334   0.00000   0.00000   0.00000   0.00000   2.04334
   R25        3.30608   0.00000   0.00000  -0.00000  -0.00000   3.30608
   R26        2.58168  -0.00000   0.00000  -0.00000  -0.00000   2.58167
   R27        1.82407   0.00000   0.00000   0.00000   0.00000   1.82407
    A1        2.08404  -0.00000   0.00000  -0.00001  -0.00001   2.08403
    A2        1.58326   0.00000   0.00000   0.00001   0.00001   1.58327
    A3        2.08205  -0.00000   0.00000  -0.00001  -0.00001   2.08204
    A4        1.72667  -0.00000   0.00000   0.00004   0.00004   1.72671
    A5        2.07122   0.00000   0.00000  -0.00001  -0.00001   2.07121
    A6        1.68534  -0.00000   0.00000   0.00006   0.00006   1.68540
    A7        2.12469   0.00000   0.00000  -0.00000  -0.00000   2.12469
    A8        2.06208  -0.00000   0.00000  -0.00000  -0.00000   2.06208
    A9        2.09641   0.00000   0.00000   0.00000   0.00000   2.09641
   A10        2.08270  -0.00000   0.00000  -0.00000  -0.00000   2.08270
   A11        2.11481   0.00000   0.00000   0.00000   0.00000   2.11482
   A12        2.08312  -0.00000   0.00000   0.00000   0.00000   2.08312
   A13        2.14603   0.00000   0.00000   0.00002   0.00002   2.14605
   A14        2.07133   0.00000   0.00000   0.00006   0.00006   2.07139
   A15        2.00248  -0.00000   0.00000  -0.00001  -0.00001   2.00248
   A16        2.11190   0.00000   0.00000   0.00000   0.00000   2.11190
   A17        2.08474  -0.00000   0.00000  -0.00000  -0.00000   2.08473
   A18        2.08454  -0.00000   0.00000  -0.00000  -0.00000   2.08454
   A19        2.13866   0.00000   0.00000   0.00000   0.00000   2.13867
   A20        2.06156  -0.00000   0.00000   0.00000   0.00000   2.06156
   A21        2.08295   0.00000   0.00000  -0.00000  -0.00000   2.08295
   A22        2.18102  -0.00000   0.00000  -0.00000  -0.00000   2.18102
   A23        2.08106   0.00000   0.00000  -0.00000  -0.00000   2.08106
   A24        2.02109   0.00000   0.00000   0.00000   0.00000   2.02110
   A25        1.95683  -0.00000   0.00000  -0.00000  -0.00000   1.95683
   A26        1.95077   0.00000   0.00000  -0.00000  -0.00000   1.95077
   A27        1.93578  -0.00000   0.00000  -0.00000  -0.00000   1.93578
   A28        1.87991   0.00000   0.00000   0.00000   0.00000   1.87991
   A29        1.87037   0.00000   0.00000  -0.00000  -0.00000   1.87036
   A30        1.86567  -0.00000   0.00000   0.00000   0.00000   1.86567
   A31        1.92942   0.00000   0.00000   0.00000   0.00000   1.92942
   A32        1.94273   0.00000   0.00000  -0.00000  -0.00000   1.94273
   A33        1.93765  -0.00000   0.00000  -0.00000  -0.00000   1.93765
   A34        1.86187   0.00000   0.00000  -0.00000  -0.00000   1.86187
   A35        1.89191  -0.00000   0.00000   0.00000   0.00000   1.89191
   A36        1.89790   0.00000   0.00000  -0.00000  -0.00000   1.89790
   A37        2.24033  -0.00000   0.00000  -0.00000  -0.00000   2.24033
   A38        1.91043  -0.00000   0.00000   0.00000   0.00000   1.91043
   A39        2.13238   0.00000   0.00000   0.00000   0.00000   2.13238
   A40        1.54302   0.00000   0.00000   0.00000   0.00000   1.54302
   A41        1.94730   0.00000   0.00000   0.00000   0.00000   1.94730
   A42        2.13302  -0.00000   0.00000  -0.00000  -0.00000   2.13302
   A43        2.12801   0.00000   0.00000   0.00000   0.00000   2.12801
   A44        2.02193   0.00000   0.00000  -0.00000  -0.00000   2.02193
   A45        1.91816   0.00000   0.00000   0.00000   0.00000   1.91817
    D1        0.23806  -0.00000   0.00000   0.00011   0.00011   0.23816
    D2       -2.98064  -0.00000   0.00000   0.00008   0.00008  -2.98055
    D3       -1.43598  -0.00000   0.00000   0.00007   0.00007  -1.43590
    D4        1.62852  -0.00000   0.00000   0.00005   0.00005   1.62856
    D5        3.05685   0.00000   0.00000  -0.00002  -0.00002   3.05683
    D6       -0.16184   0.00000   0.00000  -0.00004  -0.00004  -0.16189
    D7        0.74921  -0.00000   0.00000  -0.00014  -0.00014   0.74907
    D8       -2.78727  -0.00000   0.00000   0.00008   0.00008  -2.78719
    D9        2.84248  -0.00000   0.00000  -0.00015  -0.00015   2.84233
   D10       -0.69400  -0.00000   0.00000   0.00008   0.00008  -0.69392
   D11       -1.33824   0.00000   0.00000  -0.00013  -0.00013  -1.33837
   D12        1.40846   0.00000   0.00000   0.00009   0.00009   1.40856
   D13        2.97770   0.00000   0.00000  -0.00008  -0.00008   2.97762
   D14       -0.23246   0.00000   0.00000  -0.00009  -0.00009  -0.23255
   D15        0.15854  -0.00000   0.00000   0.00004   0.00004   0.15858
   D16       -3.05162  -0.00000   0.00000   0.00003   0.00003  -3.05159
   D17       -1.65567   0.00000   0.00000  -0.00004  -0.00004  -1.65571
   D18        1.41735   0.00000   0.00000  -0.00005  -0.00005   1.41730
   D19        3.07918   0.00000   0.00000  -0.00001  -0.00001   3.07917
   D20        0.00615   0.00000   0.00000  -0.00000  -0.00000   0.00615
   D21       -0.06057   0.00000   0.00000  -0.00002  -0.00002  -0.06059
   D22       -3.13360   0.00000   0.00000  -0.00001  -0.00001  -3.13361
   D23        2.13860   0.00000   0.00000   0.00010   0.00010   2.13870
   D24       -2.03170   0.00000   0.00000   0.00010   0.00010  -2.03161
   D25        0.04845   0.00000   0.00000   0.00010   0.00010   0.04855
   D26       -1.00487   0.00000   0.00000   0.00010   0.00010  -1.00477
   D27        1.10801   0.00000   0.00000   0.00010   0.00010   1.10811
   D28       -3.09502   0.00000   0.00000   0.00010   0.00010  -3.09491
   D29       -0.03848   0.00000   0.00000  -0.00001  -0.00001  -0.03849
   D30        3.12689  -0.00000   0.00000  -0.00000  -0.00000   3.12689
   D31        3.10492   0.00000   0.00000  -0.00001  -0.00001   3.10491
   D32       -0.01289  -0.00000   0.00000  -0.00001  -0.00001  -0.01289
   D33       -3.06975   0.00000   0.00000   0.00001   0.00001  -3.06974
   D34        0.06654   0.00000   0.00000   0.00002   0.00002   0.06656
   D35       -0.00527  -0.00000   0.00000  -0.00001  -0.00001  -0.00529
   D36        3.13101  -0.00000   0.00000  -0.00000  -0.00000   3.13101
   D37        2.78400   0.00000   0.00000   0.00023   0.00023   2.78423
   D38        0.02315   0.00000   0.00000  -0.00000  -0.00000   0.02314
   D39       -2.80944  -0.00000   0.00000  -0.00021  -0.00021  -2.80965
   D40       -0.03119  -0.00000   0.00000   0.00001   0.00001  -0.03118
   D41        2.04791   0.00000   0.00000   0.00007   0.00007   2.04797
   D42       -2.16931   0.00000   0.00000   0.00006   0.00006  -2.16924
   D43       -0.05241   0.00000   0.00000   0.00006   0.00006  -0.05234
   D44       -1.08832   0.00000   0.00000   0.00006   0.00006  -1.08826
   D45        0.97765   0.00000   0.00000   0.00005   0.00005   0.97771
   D46        3.09455   0.00000   0.00000   0.00005   0.00005   3.09461
   D47        0.03559  -0.00000   0.00000   0.00001   0.00001   0.03559
   D48       -3.12844  -0.00000   0.00000   0.00000   0.00000  -3.12844
   D49       -3.11114  -0.00000   0.00000   0.00002   0.00002  -3.11112
   D50        0.00803  -0.00000   0.00000   0.00001   0.00001   0.00804
   D51        0.00543  -0.00000   0.00000  -0.00000  -0.00000   0.00543
   D52        3.13645  -0.00000   0.00000  -0.00000  -0.00000   3.13645
   D53       -3.13858   0.00000   0.00000   0.00000   0.00000  -3.13858
   D54       -0.00756   0.00000   0.00000   0.00000   0.00000  -0.00756
   D55       -3.11852   0.00000   0.00000  -0.00000  -0.00000  -3.11852
   D56        0.02535   0.00000   0.00000  -0.00001  -0.00001   0.02534
   D57       -0.00768  -0.00000   0.00000  -0.00000  -0.00000  -0.00768
   D58        3.12412  -0.00000   0.00000   0.00000   0.00000   3.12412
   D59       -0.06682  -0.00000   0.00000  -0.00005  -0.00005  -0.06687
   D60        3.09713  -0.00000   0.00000  -0.00004  -0.00004   3.09708
         Item               Value     Threshold  Converged?
 Maximum Force            0.000006     0.000450     YES
 RMS     Force            0.000001     0.000300     YES
 Maximum Displacement     0.000701     0.001800     YES
 RMS     Displacement     0.000161     0.001200     YES
 Predicted change in Energy= 6.103957D-10
 Optimization completed.
    -- Stationary point found.
                           ----------------------------
                           !   Optimized Parameters   !
                           ! (Angstroms and Degrees)  !
 --------------------------                            --------------------------
 ! Name  Definition              Value          Derivative Info.                !
 --------------------------------------------------------------------------------
 ! R1    R(1,2)                  1.0845         -DE/DX =    0.0                 !
 ! R2    R(1,4)                  1.4158         -DE/DX =    0.0                 !
 ! R3    R(1,6)                  2.2528         -DE/DX =    0.0                 !
 ! R4    R(1,7)                  1.4154         -DE/DX =    0.0                 !
 ! R5    R(3,7)                  1.3883         -DE/DX =    0.0                 !
 ! R6    R(3,11)                 1.5098         -DE/DX =    0.0                 !
 ! R7    R(3,23)                 1.4104         -DE/DX =    0.0                 !
 ! R8    R(4,5)                  1.0856         -DE/DX =    0.0                 !
 ! R9    R(4,8)                  1.3842         -DE/DX =    0.0                 !
 ! R10   R(6,21)                 1.7692         -DE/DX =    0.0                 !
 ! R11   R(6,22)                 1.2798         -DE/DX =    0.0                 !
 ! R12   R(7,26)                 1.0859         -DE/DX =    0.0                 !
 ! R13   R(8,15)                 1.5055         -DE/DX =    0.0                 !
 ! R14   R(8,23)                 1.4122         -DE/DX =    0.0                 !
 ! R15   R(9,10)                 1.0841         -DE/DX =    0.0                 !
 ! R16   R(9,19)                 1.3628         -DE/DX =    0.0                 !
 ! R17   R(9,22)                 1.3892         -DE/DX =    0.0                 !
 ! R18   R(11,12)                1.0985         -DE/DX =    0.0                 !
 ! R19   R(11,13)                1.0988         -DE/DX =    0.0                 !
 ! R20   R(11,14)                1.0922         -DE/DX =    0.0                 !
 ! R21   R(15,16)                1.0953         -DE/DX =    0.0                 !
 ! R22   R(15,17)                1.0951         -DE/DX =    0.0                 !
 ! R23   R(15,18)                1.0927         -DE/DX =    0.0                 !
 ! R24   R(19,20)                1.0813         -DE/DX =    0.0                 !
 ! R25   R(19,21)                1.7495         -DE/DX =    0.0                 !
 ! R26   R(23,24)                1.3662         -DE/DX =    0.0                 !
 ! R27   R(24,25)                0.9653         -DE/DX =    0.0                 !
 ! A1    A(2,1,4)              119.4066         -DE/DX =    0.0                 !
 ! A2    A(2,1,6)               90.7142         -DE/DX =    0.0                 !
 ! A3    A(2,1,7)              119.2928         -DE/DX =    0.0                 !
 ! A4    A(4,1,6)               98.9307         -DE/DX =    0.0                 !
 ! A5    A(4,1,7)              118.6723         -DE/DX =    0.0                 !
 ! A6    A(6,1,7)               96.563          -DE/DX =    0.0                 !
 ! A7    A(7,3,11)             121.7357         -DE/DX =    0.0                 !
 ! A8    A(7,3,23)             118.1487         -DE/DX =    0.0                 !
 ! A9    A(11,3,23)            120.1156         -DE/DX =    0.0                 !
 ! A10   A(1,4,5)              119.3301         -DE/DX =    0.0                 !
 ! A11   A(1,4,8)              121.17           -DE/DX =    0.0                 !
 ! A12   A(5,4,8)              119.3541         -DE/DX =    0.0                 !
 ! A13   A(1,6,21)             122.9583         -DE/DX =    0.0                 !
 ! A14   A(1,6,22)             118.6786         -DE/DX =    0.0                 !
 ! A15   A(21,6,22)            114.7339         -DE/DX =    0.0                 !
 ! A16   A(1,7,3)              121.0028         -DE/DX =    0.0                 !
 ! A17   A(1,7,26)             119.4466         -DE/DX =    0.0                 !
 ! A18   A(3,7,26)             119.4352         -DE/DX =    0.0                 !
 ! A19   A(4,8,15)             122.5365         -DE/DX =    0.0                 !
 ! A20   A(4,8,23)             118.1187         -DE/DX =    0.0                 !
 ! A21   A(15,8,23)            119.3442         -DE/DX =    0.0                 !
 ! A22   A(10,9,19)            124.9635         -DE/DX =    0.0                 !
 ! A23   A(10,9,22)            119.2362         -DE/DX =    0.0                 !
 ! A24   A(19,9,22)            115.8002         -DE/DX =    0.0                 !
 ! A25   A(3,11,12)            112.1184         -DE/DX =    0.0                 !
 ! A26   A(3,11,13)            111.771          -DE/DX =    0.0                 !
 ! A27   A(3,11,14)            110.9123         -DE/DX =    0.0                 !
 ! A28   A(12,11,13)           107.7109         -DE/DX =    0.0                 !
 ! A29   A(12,11,14)           107.164          -DE/DX =    0.0                 !
 ! A30   A(13,11,14)           106.8952         -DE/DX =    0.0                 !
 ! A31   A(8,15,16)            110.5475         -DE/DX =    0.0                 !
 ! A32   A(8,15,17)            111.3104         -DE/DX =    0.0                 !
 ! A33   A(8,15,18)            111.0192         -DE/DX =    0.0                 !
 ! A34   A(16,15,17)           106.6771         -DE/DX =    0.0                 !
 ! A35   A(16,15,18)           108.3982         -DE/DX =    0.0                 !
 ! A36   A(17,15,18)           108.7418         -DE/DX =    0.0                 !
 ! A37   A(9,19,20)            128.3613         -DE/DX =    0.0                 !
 ! A38   A(9,19,21)            109.4594         -DE/DX =    0.0                 !
 ! A39   A(20,19,21)           122.1765         -DE/DX =    0.0                 !
 ! A40   A(6,21,19)             88.4084         -DE/DX =    0.0                 !
 ! A41   A(6,22,9)             111.572          -DE/DX =    0.0                 !
 ! A42   A(3,23,8)             122.213          -DE/DX =    0.0                 !
 ! A43   A(3,23,24)            121.9262         -DE/DX =    0.0                 !
 ! A44   A(8,23,24)            115.8479         -DE/DX =    0.0                 !
 ! A45   A(23,24,25)           109.9028         -DE/DX =    0.0                 !
 ! D1    D(2,1,4,5)             13.6398         -DE/DX =    0.0                 !
 ! D2    D(2,1,4,8)           -170.7778         -DE/DX =    0.0                 !
 ! D3    D(6,1,4,5)            -82.2753         -DE/DX =    0.0                 !
 ! D4    D(6,1,4,8)             93.3071         -DE/DX =    0.0                 !
 ! D5    D(7,1,4,5)            175.1446         -DE/DX =    0.0                 !
 ! D6    D(7,1,4,8)             -9.2729         -DE/DX =    0.0                 !
 ! D7    D(2,1,6,21)            42.9265         -DE/DX =    0.0                 !
 ! D8    D(2,1,6,22)          -159.699          -DE/DX =    0.0                 !
 ! D9    D(4,1,6,21)           162.8621         -DE/DX =    0.0                 !
 ! D10   D(4,1,6,22)           -39.7633         -DE/DX =    0.0                 !
 ! D11   D(7,1,6,21)           -76.6756         -DE/DX =    0.0                 !
 ! D12   D(7,1,6,22)            80.6989         -DE/DX =    0.0                 !
 ! D13   D(2,1,7,3)            170.6099         -DE/DX =    0.0                 !
 ! D14   D(2,1,7,26)           -13.3187         -DE/DX =    0.0                 !
 ! D15   D(4,1,7,3)              9.0836         -DE/DX =    0.0                 !
 ! D16   D(4,1,7,26)          -174.845          -DE/DX =    0.0                 !
 ! D17   D(6,1,7,3)            -94.863          -DE/DX =    0.0                 !
 ! D18   D(6,1,7,26)            81.2083         -DE/DX =    0.0                 !
 ! D19   D(11,3,7,1)           176.4241         -DE/DX =    0.0                 !
 ! D20   D(11,3,7,26)            0.3523         -DE/DX =    0.0                 !
 ! D21   D(23,3,7,1)            -3.4703         -DE/DX =    0.0                 !
 ! D22   D(23,3,7,26)         -179.5421         -DE/DX =    0.0                 !
 ! D23   D(7,3,11,12)          122.5327         -DE/DX =    0.0                 !
 ! D24   D(7,3,11,13)         -116.408          -DE/DX =    0.0                 !
 ! D25   D(7,3,11,14)            2.7762         -DE/DX =    0.0                 !
 ! D26   D(23,3,11,12)         -57.5749         -DE/DX =    0.0                 !
 ! D27   D(23,3,11,13)          63.4844         -DE/DX =    0.0                 !
 ! D28   D(23,3,11,14)        -177.3315         -DE/DX =    0.0                 !
 ! D29   D(7,3,23,8)            -2.2049         -DE/DX =    0.0                 !
 ! D30   D(7,3,23,24)          179.1577         -DE/DX =    0.0                 !
 ! D31   D(11,3,23,8)          177.8989         -DE/DX =    0.0                 !
 ! D32   D(11,3,23,24)          -0.7385         -DE/DX =    0.0                 !
 ! D33   D(1,4,8,15)          -175.8836         -DE/DX =    0.0                 !
 ! D34   D(1,4,8,23)             3.8125         -DE/DX =    0.0                 !
 ! D35   D(5,4,8,15)            -0.3022         -DE/DX =    0.0                 !
 ! D36   D(5,4,8,23)           179.3939         -DE/DX =    0.0                 !
 ! D37   D(1,6,21,19)          159.5117         -DE/DX =    0.0                 !
 ! D38   D(22,6,21,19)           1.3262         -DE/DX =    0.0                 !
 ! D39   D(1,6,22,9)          -160.9693         -DE/DX =    0.0                 !
 ! D40   D(21,6,22,9)           -1.7871         -DE/DX =    0.0                 !
 ! D41   D(4,8,15,16)          117.3364         -DE/DX =    0.0                 !
 ! D42   D(4,8,15,17)         -124.2922         -DE/DX =    0.0                 !
 ! D43   D(4,8,15,18)           -3.0027         -DE/DX =    0.0                 !
 ! D44   D(23,8,15,16)         -62.3561         -DE/DX =    0.0                 !
 ! D45   D(23,8,15,17)          56.0153         -DE/DX =    0.0                 !
 ! D46   D(23,8,15,18)         177.3048         -DE/DX =    0.0                 !
 ! D47   D(4,8,23,3)             2.0389         -DE/DX =    0.0                 !
 ! D48   D(4,8,23,24)         -179.2461         -DE/DX =    0.0                 !
 ! D49   D(15,8,23,3)         -178.2551         -DE/DX =    0.0                 !
 ! D50   D(15,8,23,24)           0.4599         -DE/DX =    0.0                 !
 ! D51   D(10,9,19,20)           0.311          -DE/DX =    0.0                 !
 ! D52   D(10,9,19,21)         179.7052         -DE/DX =    0.0                 !
 ! D53   D(22,9,19,20)        -179.8275         -DE/DX =    0.0                 !
 ! D54   D(22,9,19,21)          -0.4334         -DE/DX =    0.0                 !
 ! D55   D(10,9,22,6)         -178.6779         -DE/DX =    0.0                 !
 ! D56   D(19,9,22,6)            1.4522         -DE/DX =    0.0                 !
 ! D57   D(9,19,21,6)           -0.4399         -DE/DX =    0.0                 !
 ! D58   D(20,19,21,6)         178.9988         -DE/DX =    0.0                 !
 ! D59   D(3,23,24,25)          -3.8288         -DE/DX =    0.0                 !
 ! D60   D(8,23,24,25)         177.4522         -DE/DX =    0.0                 !
 --------------------------------------------------------------------------------
 GradGradGradGradGradGradGradGradGradGradGradGradGradGradGradGradGradGrad


 ----------------------------------------------------------------------

 Electric dipole moment (input orientation):
 (Debye = 10**-18 statcoulomb cm , SI units = C m)
                  (au)            (Debye)         (10**-30 SI)
   Tot        0.955614D+00      0.242893D+01      0.810203D+01
   x         -0.102312D+00     -0.260051D+00     -0.867438D+00
   y         -0.808338D+00     -0.205459D+01     -0.685337D+01
   z         -0.499319D+00     -0.126914D+01     -0.423340D+01

 Dipole polarizability, Alpha (input orientation).
 (esu units = cm**3 , SI units = C**2 m**2 J**-1)
 Alpha(0;0):
               (au)            (10**-24 esu)      (10**-40 SI)
   iso        0.150528D+03      0.223060D+02      0.248188D+02
   aniso      0.751975D+02      0.111431D+02      0.123984D+02
   xx         0.144700D+03      0.214424D+02      0.238578D+02
   yx         0.253788D+02      0.376075D+01      0.418440D+01
   yy         0.160123D+03      0.237278D+02      0.264008D+02
   zx        -0.231693D+02     -0.343334D+01     -0.382011D+01
   zy        -0.251769D+02     -0.373083D+01     -0.415111D+01
   zz         0.146761D+03      0.217478D+02      0.241977D+02

 ----------------------------------------------------------------------

 Dipole orientation:
     6          8.70085400          6.15756834          0.36243780
     1         10.51450707          6.06990022         -0.58796470
     6          6.35557940          5.94185480          4.32725087
     6          6.71747540          7.58886050         -0.72172856
     1          6.88335254          8.22515366         -2.66501696
     6          7.65708269          2.32176356         -1.16113201
     6          8.54820252          5.50944535          2.95299474
     6          4.50199453          8.04469781          0.59210691
     6          5.02015862         -0.89995541         -1.43876509
     1          3.13080330         -1.68181674         -1.56444388
     6          6.10578310          5.12708699          7.05004471
     1          5.66212658          6.71994978          8.30495052
     1          4.61887488          3.69833209          7.29305149
     1          7.86301663          4.28593114          7.73148278
     6          2.29072253          9.41090939         -0.56433860
     1          0.63604657          8.17073444         -0.65260546
     1          1.74306336         11.05191690          0.57135610
     1          2.73173431         10.04639271         -2.47883253
     6          7.19319598         -2.28185712         -1.45413203
     1          7.40588279         -4.30907039         -1.59699250
    16          9.79189665         -0.25039526         -1.23033621
     7          5.32110139          1.70038634         -1.23945154
     6          4.33035142          7.17395925          3.10883808
     8          2.09544727          7.64422827          4.31262257
     1          2.12657301          6.91829605          5.98573018
     1         10.12677017          4.55128109          3.84788153

 Electric dipole moment (dipole orientation):
 (Debye = 10**-18 statcoulomb cm , SI units = C m)
                  (au)            (Debye)         (10**-30 SI)
   Tot        0.955614D+00      0.242893D+01      0.810203D+01
   x          0.000000D+00      0.000000D+00      0.000000D+00
   y          0.000000D+00      0.000000D+00      0.000000D+00
   z          0.955614D+00      0.242893D+01      0.810203D+01

 Dipole polarizability, Alpha (dipole orientation).
 (esu units = cm**3 , SI units = C**2 m**2 J**-1)
 Alpha(0;0):
               (au)            (10**-24 esu)      (10**-40 SI)
   iso        0.150528D+03      0.223060D+02      0.248188D+02
   aniso      0.751975D+02      0.111431D+02      0.123984D+02
   xx         0.146385D+03      0.216920D+02      0.241356D+02
   yx        -0.326061D+02     -0.483173D+01     -0.537602D+01
   yy         0.169152D+03      0.250658D+02      0.278895D+02
   zx        -0.115661D+02     -0.171391D+01     -0.190699D+01
   zy         0.200274D+02      0.296775D+01      0.330207D+01
   zz         0.136047D+03      0.201601D+02      0.224312D+02

 ----------------------------------------------------------------------
 Unable to Open any file for archive entry.
 1\1\GINC-EXP-5-19\Freq\UB3LYP\6-31G(d,p)\C11H12N1O1S1(2)\JCUZICK\05-Ma
 y-2026\0\\#N Geom=AllCheck Guess=TCheck SCRF=Check GenChk UB3LYP/6-31G
 (d,p) Freq\\CuL_subs\\0,2\C,4.7429172618,-2.16321988,2.163095765\H,5.7
 465217935,-1.7702975248,2.2838865377\C,3.2797748045,-3.8036319393,1.10
 31365267\C,3.8077380112,-2.0169477049,3.2159175307\H,4.0249831471,-1.3
 307803932,4.0286598861\C,4.1603147502,-0.3724948028,0.9265081122\C,4.4
 95574155,-3.1362173037,1.1653383976\C,2.5840945649,-2.663168367,3.1822
 038972\C,2.6897393156,0.7384271223,-0.2894421436\H,1.6799725702,1.0734
 558068,-0.497627213\C,2.9686743906,-4.7860223246,-0.0002746059\H,2.714
 7099648,-5.7805555083,0.3908795176\H,2.1290194661,-4.4472494413,-0.622
 7666923\H,3.8264765921,-4.9104303353,-0.6647708912\C,1.5312737667,-2.4
 591148498,4.2387909116\H,0.6282129745,-2.0196694798,3.8018139734\H,1.2
 309573491,-3.4105166357,4.6903500516\H,1.8913608495,-1.7942699045,5.02
 7621042\C,3.7883758353,1.0645074639,-1.0268788614\H,3.8443604158,1.690
 3633675,-1.9068538381\S,5.2044608626,0.3127368675,-0.3266627098\N,2.91
 83515157,-0.0896200595,0.8023684605\C,2.3239525478,-3.5400815637,2.106
 2876993\O,1.0967974374,-4.140477437,2.1105636755\H,0.9955026299,-4.686
 7644459,1.3212407412\H,5.2437660281,-3.317726727,0.3995702295\\Version
 =ES64L-G16RevC.01\HF=-954.5025177\S2=0.772949\S2-1=0.\S2A=0.750387\RMS
 D=3.631e-09\RMSF=1.522e-06\ZeroPoint=0.2031456\Thermal=0.2170958\ETot=
 -954.2854219\HTot=-954.2844777\GTot=-954.3429871\Dipole=-0.1023121,-0.
 8083379,-0.4993188\DipoleDeriv=0.0971115,-0.0609085,0.1240855,-0.00533
 32,-0.290639,0.0941858,0.0732435,0.0372002,-0.1298286,-0.0542412,-0.04
 68517,-0.0044528,-0.0284509,0.1202455,-0.0502415,-0.004177,-0.0532879,
 0.0692523,-0.2197509,-0.3130149,0.088032,0.027495,0.0431692,0.0657602,
 0.1791466,0.3639002,-0.0211919,0.0024055,0.3218684,-0.2412902,0.158352
 4,0.0097355,0.1449103,0.0024855,-0.0478608,0.0514786,0.0734901,-0.0091
 117,0.0035124,-0.0378628,0.0267676,-0.1066396,-0.005697,-0.0591728,-0.
 0311879,0.4259274,-0.6868391,0.1437467,0.218494,0.7774928,-0.5999973,-
 0.5577859,-0.89757,0.554654,0.0234536,0.2965757,-0.0972923,0.0970486,0
 .1100037,-0.0334034,-0.1328805,0.2554671,-0.1575864,0.0105649,-0.17167
 08,-0.0871958,-0.2322504,-0.2824301,0.1515847,-0.320034,-0.258686,0.25
 227,0.1618543,-0.1358746,0.0606449,-0.0980554,0.1002465,-0.1233635,0.0
 957034,-0.0866863,0.101858,-0.0529691,0.0955559,-0.0564869,0.0273187,0
 .0694942,0.0496407,0.0034696,0.0677343,0.067542,0.0628639,-0.0094646,0
 .0134777,-0.0127096,0.1357364,-0.0315385,0.0172074,-0.0176652,0.064833
 9,0.0483382,-0.0933888,-0.0044317,-0.049802,-0.1432145,0.0026017,0.007
 6969,0.0407524,-0.0046329,-0.0600959,-0.000444,-0.1135325,0.0446015,-0
 .0157698,-0.0006845,-0.069874,-0.0415564,-0.0242294,-0.0334326,0.04614
 26,0.1030588,-0.0216712,0.0586971,-0.0033198,0.0428734,-0.0467518,0.00
 84225,0.0160116,0.0149013,0.0588966,0.0034109,0.1110198,0.0226376,0.01
 61233,0.0008271,0.1393801,-0.0734993,0.0531829,0.0186588,0.0692912,0.0
 447844,0.002171,-0.03153,0.0369644,-0.0102963,0.0273534,-0.0291666,0.0
 699343,-0.0448367,-0.0676242,0.084838,0.0676698,0.0444516,-0.0183349,0
 .0223225,-0.0577593,-0.0617381,-0.0159646,0.0016218,-0.1111612,0.01090
 98,-0.057452,-0.0674943,0.1860166,-0.1104245,0.0382828,-0.161438,-0.26
 48121,-0.0438312,0.1231632,0.0838334,-0.2028463,0.0877832,0.0866714,-0
 .0602902,0.0129167,0.089977,0.089467,-0.0014934,0.1012923,0.0365428,-0
 .2401224,0.0193193,0.1121175,-0.0680494,-0.1945501,0.205205,0.2154555,
 0.3261699,-0.2080613,-0.7254708,0.7008291,-0.2257782,0.0338812,-0.5618
 769,0.2659513,0.1281041,0.2955704,-0.4010521,1.0093449,0.8417425,-0.10
 84109,0.5099048,0.5038185,-0.1242109,0.0826047,-0.0170473,-0.0002995,-
 1.1750994,-0.835894,0.1554796,-0.466005,-0.7782868,0.1421431,-0.049242
 3,-0.00216,-0.2454622,0.3636566,0.0655606,0.0128347,0.0470789,0.327274
 3,-0.0611025,0.0096729,-0.0115295,0.1843746,0.0161836,0.0184632,0.0581
 373,-0.0073649,0.069119,-0.0316024,0.0971845,-0.0567373,-0.0081048\Pol
 ar=144.7002284,25.3788106,160.1232448,-23.1693377,-25.176902,146.76142
 33\Quadrupole=-3.8371779,6.1643526,-2.3271747,-3.8912836,-1.2368129,0.
 8933746\PG=C01 [X(C11H12N1O1S1)]\NImag=1\\0.65379317,0.16641629,0.2653
 8390,-0.08114916,0.24802391,0.45904947,-0.29917153,-0.10662231,-0.0224
 9076,0.31324397,-0.10009070,-0.06917720,-0.02692255,0.10956490,0.08238
 247,-0.02604060,-0.02910805,-0.05136957,0.02598466,0.02272353,0.053906
 83,0.00486997,-0.05194363,-0.04116123,0.00147441,0.00148339,-0.0004456
 5,0.60408478,-0.02147414,-0.02108792,-0.01413969,-0.00073981,0.0011093
 9,-0.00447508,0.16586622,0.38304266,-0.02534145,0.00231649,0.01332822,
 -0.00007143,-0.00651237,-0.00093113,-0.08939168,0.19593175,0.47594200,
 -0.19271019,0.00708784,0.07014835,-0.01287161,0.00007454,0.02511853,-0
 .03993882,-0.00663719,0.01648048,0.58605212,0.00668553,-0.07409260,-0.
 05114191,-0.00791776,0.00104040,0.01113806,-0.00514792,-0.00292750,0.0
 0364473,0.18789275,0.39253837,0.12422714,-0.05977318,-0.20031093,-0.00
 556849,0.00463342,0.00461268,0.01495323,0.00382647,-0.00756586,-0.0872
 4011,0.23296266,0.55164131,0.00775873,0.01452173,0.01565005,0.00030312
 ,0.00102985,-0.00107517,-0.00095326,0.00009679,0.00017421,-0.06561886,
 -0.04267229,-0.03574619,0.06597369,-0.00140584,0.00117567,0.00024266,0
 .00075744,-0.00144764,0.00125720,0.00004411,-0.00038483,0.00053746,-0.
 04350003,-0.15780627,-0.14306100,0.04928266,0.15905041,-0.00669129,-0.
 01450053,-0.01374740,-0.00010468,0.00137714,-0.00022732,0.00028792,0.0
 0066885,0.00007762,-0.03808192,-0.14093801,-0.20814528,0.03698383,0.15
 573958,0.21813184,-0.01219186,-0.02732433,0.01280607,-0.00231044,0.009
 94983,-0.00677672,-0.00787209,-0.00024144,0.00352470,0.01206872,-0.002
 53318,-0.00502835,0.00015121,0.00013653,0.00087829,0.56661010,-0.00143
 997,0.04267499,-0.02144100,0.00224754,-0.00579644,0.00391466,0.0110882
 1,0.00075348,-0.00282168,-0.01652352,-0.00726766,0.02214789,-0.0000255
 9,-0.00000206,-0.00102470,-0.11443397,0.14818640,-0.00173821,-0.029250
 30,0.01241024,-0.00126059,0.00561858,-0.00311876,-0.00616933,-0.000983
 89,0.00294654,0.01680960,0.01080689,-0.01912140,0.00007634,-0.00025916
 ,0.00117485,0.05685671,-0.08958629,0.17827156,-0.11966552,-0.01390345,
 0.00503487,-0.00010260,-0.02262377,-0.02054567,-0.28389190,-0.13287335
 ,-0.02024404,0.03296048,0.01669524,0.00544249,-0.00174755,-0.00096677,
 0.00479348,0.00905605,-0.00741952,0.00433402,0.62590092,-0.05139999,-0
 .14409818,-0.13423679,0.00082775,-0.01012674,-0.00358111,-0.09447686,-
 0.13736060,-0.04865341,0.02411320,0.00126521,-0.01496021,-0.00152708,0
 .00327760,-0.00083751,0.01052553,-0.03440684,0.01230256,0.14676752,0.3
 7805446,-0.02867979,-0.11002629,-0.20172692,0.00189618,-0.00203633,0.0
 0247286,0.03154021,-0.02020669,-0.10086886,0.02315925,-0.02005993,-0.0
 2884041,0.00419951,-0.00192955,-0.00085076,0.00863675,-0.01191041,0.01
 010754,-0.15353658,0.21632414,0.50735108,-0.03942610,-0.00806752,0.044
 43211,-0.00059878,0.00111613,0.00257326,0.03991983,0.01837411,0.001040
 16,-0.29616354,-0.13599166,-0.01547832,-0.00195788,-0.00176127,0.00171
 059,-0.00453125,0.00674371,-0.00690166,-0.01844918,-0.01586434,-0.0142
 2876,0.62633618,-0.01289234,0.00786496,0.03798240,0.00062739,0.0051693
 4,-0.00393878,0.03866115,0.00507979,-0.02646914,-0.09856663,-0.1359252
 8,-0.04422459,-0.01799655,-0.00548939,-0.00095802,-0.00503221,0.006601
 46,-0.00632294,-0.01964785,-0.01893352,-0.01231765,0.16893512,0.372981
 46,0.01583233,0.01321866,0.02899871,0.00350820,-0.00086394,-0.00302340
 ,0.02797032,-0.01084122,-0.03169867,0.03482874,-0.01649630,-0.10816031
 ,-0.02067749,-0.01234902,0.00168555,-0.00400448,0.00485071,-0.00618445
 ,-0.01573273,-0.01235312,-0.01145354,-0.09760419,0.18137795,0.49345241
 ,-0.00090446,-0.00223317,0.00123234,-0.00004108,0.00041127,-0.00014025
 ,-0.00012472,0.00006489,0.00008895,0.00091570,-0.00087737,-0.00011692,
 -0.00002960,0.00005976,-0.00009216,-0.05277873,0.02740991,-0.01962849,
 0.00021373,0.00037652,0.00099356,0.00051680,0.00028453,-0.00025607,0.8
 0925766,0.00071468,0.00074722,0.00041833,-0.00002261,-0.00000706,0.000
 01115,-0.00005042,-0.00003097,-0.00016922,0.00047525,0.00065582,-0.000
 42687,0.00008216,-0.00004400,0.00007897,0.05824846,-0.01373218,0.02237
 163,-0.00008046,0.00070676,0.00003243,-0.00063565,-0.00022523,-0.00021
 107,-0.08505327,0.28671069,0.00078582,-0.00294368,0.00189576,0.0000281
 7,-0.00011767,0.00011254,0.00035050,0.00040394,-0.00017751,0.00004075,
 -0.00040665,-0.00017743,-0.00006740,0.00001453,-0.00002286,-0.07081548
 ,0.03112000,-0.01812089,0.00044965,0.00044968,0.00067173,0.00032484,0.
 00057788,0.00011269,-0.05532067,-0.20063797,0.42138143,0.00003460,0.00
 003828,-0.00000415,0.00002744,0.00000613,0.00001743,0.00010849,-0.0000
 2863,-0.00011389,-0.00010469,0.00007679,0.00002274,-0.00000281,-0.0000
 0582,-0.00000969,0.00117521,-0.00008134,0.00061607,-0.00009722,-0.0000
 2973,-0.00009287,0.00000835,0.00006453,0.00010833,-0.31126294,0.084078
 13,-0.04559156,0.32407383,0.00010241,-0.00024174,0.00017429,0.00000279
 ,-0.00002412,0.00003838,-0.00010179,0.00004373,0.00007955,0.00020571,0
 .00006055,-0.00015144,0.00000428,0.00000170,0.00000743,0.00123100,0.00
 030189,0.00361347,0.00010296,0.00016627,0.00020004,-0.00008002,-0.0001
 6246,-0.00014230,0.08179452,-0.06488111,0.02477690,-0.09247812,0.06378
 067,-0.00006332,-0.00002877,0.00014510,-0.00003158,0.00008515,-0.00006
 617,0.00015479,0.00000201,-0.00013210,-0.00014455,-0.00003026,0.000071
 42,-0.00000223,-0.00000618,-0.00001684,-0.00143811,0.00437533,-0.00265
 606,-0.00010434,-0.00007286,-0.00010933,0.00003211,0.00012679,0.000174
 81,-0.04272044,0.02400827,-0.05470494,0.05166972,-0.03338004,0.0560576
 3,-0.00232217,-0.00345643,0.00227993,-0.00007178,-0.00090435,-0.000618
 38,-0.09140743,-0.01833599,-0.00991674,-0.00161552,-0.00081156,-0.0004
 4015,0.00001182,0.00026849,-0.00015935,0.00010534,0.00030397,-0.000327
 97,-0.00306473,-0.01986683,-0.02199758,-0.00273987,-0.00061406,0.00528
 645,-0.00003040,-0.00001707,0.00002290,-0.00001293,0.00002363,0.000004
 09,0.56643698,-0.00418168,0.00536585,-0.00138573,0.00002272,-0.0001939
 2,-0.00066242,-0.02185691,-0.12892501,-0.06434488,0.00057733,-0.000651
 47,-0.00017660,0.00031402,-0.00041313,0.00023834,0.00007472,0.00007252
 ,0.00031896,-0.00804963,-0.01212524,-0.01477349,-0.00135184,0.00389113
 ,-0.00140630,0.00006851,-0.00003879,-0.00003869,-0.00001071,0.00000665
 ,-0.00001255,-0.00658832,0.51300222,0.00303906,-0.00175560,0.00358624,
 0.00019464,0.00021447,0.00060828,-0.01584370,-0.06660182,-0.14756953,-
 0.00005198,0.00036247,-0.00034321,-0.00027349,0.00035348,-0.00023468,0
 .00000896,-0.00038644,0.00022687,-0.00492163,-0.00582311,-0.00103392,0
 .00418304,-0.00125427,0.00137306,0.00008533,-0.00005352,0.00004775,-0.
 00001836,0.00003025,-0.00000970,-0.03258382,-0.02488676,0.51964568,-0.
 00060186,0.00027363,-0.00046438,-0.00004147,-0.00009720,-0.00011792,-0
 .00334866,-0.00755596,0.00059063,0.00022473,0.00010674,-0.00004118,0.0
 0003645,-0.00004744,-0.00002195,-0.00014106,0.00015387,-0.00012123,0.0
 0035650,-0.00112033,-0.00101663,-0.00024186,-0.00048665,-0.00031155,-0
 .00002150,0.00001118,-0.00000132,0.00001205,-0.00001213,0.00000455,-0.
 06010330,-0.05007283,0.02287172,0.06204096,-0.00070787,0.00023382,-0.0
 0064749,-0.00005649,-0.00010492,-0.00026012,-0.00593822,-0.01721015,0.
 00357267,-0.00022449,-0.00028463,-0.00000240,0.00006230,-0.00004147,-0
 .00000506,0.00000351,0.00026206,-0.00023529,0.00201886,-0.00117200,-0.
 00145212,-0.00003449,0.00034129,0.00002620,-0.00007015,0.00004174,-0.0
 0002062,0.00001142,-0.00000370,0.00000999,-0.05195319,-0.25312681,0.08
 662447,0.05813806,0.27697507,-0.00103327,0.00037870,-0.00060237,-0.000
 06345,-0.00011573,-0.00026962,-0.00676779,-0.02368367,0.01083698,-0.00
 016074,-0.00033650,-0.00006176,0.00005637,-0.00009222,0.00005839,-0.00
 006161,0.00025765,-0.00024677,0.00089969,-0.00139337,-0.00192051,-0.00
 057117,0.00091738,-0.00013866,-0.00003003,0.00001202,0.00000137,0.0000
 1017,-0.00001932,0.00000228,0.02204048,0.08370552,-0.08230050,-0.02304
 993,-0.09145175,0.08812696,0.00009148,-0.00065555,0.00015578,-0.000030
 74,-0.00006157,-0.00005733,-0.00411091,-0.00241169,-0.00443408,0.00017
 089,0.00005784,0.00003503,0.00001497,-0.00000784,-0.00003715,-0.000273
 66,0.00026467,-0.00030007,0.00070582,-0.00019595,-0.00116151,-0.000267
 45,-0.00007666,-0.00054287,-0.00001420,0.00000311,0.00002738,0.0000199
 1,-0.00002834,0.00000253,-0.19502035,0.06407215,-0.10588789,0.00692934
 ,-0.00213849,0.00540468,0.21101616,0.00015884,-0.00146077,0.00049552,-
 0.00005091,-0.00013342,-0.00005289,-0.01989786,0.00723887,-0.01331047,
 -0.00022976,-0.00010709,-0.00016895,-0.00004972,0.00006467,-0.00005556
 ,-0.00036828,0.00035594,-0.00038346,0.00072684,-0.00073933,-0.00194456
 ,0.00000774,-0.00059343,0.00068556,-0.00002471,-0.00002862,0.00007805,
 0.00001531,-0.00002918,0.00000486,0.06261550,-0.07253150,0.04556241,0.
 02381107,-0.00921041,0.01549159,-0.06834584,0.07759357,0.00022212,-0.0
 0123378,0.00006744,-0.00002134,-0.00016531,-0.00004577,-0.01773087,0.0
 0450018,-0.01315111,-0.00062436,-0.00023854,-0.00008127,0.00000950,0.0
 0001724,-0.00001278,-0.00020876,0.00030202,-0.00035202,0.00169384,0.00
 054049,-0.00181349,0.00043205,-0.00012109,0.00093409,-0.00006672,0.000
 00359,0.00005514,0.00001410,-0.00002397,0.00001136,-0.10947808,0.04723
 306,-0.12640114,-0.00945331,0.00431311,-0.00724501,0.12040679,-0.04838
 998,0.13721419,0.00023674,0.00027186,0.00006106,-0.00000175,0.00003275
 ,0.00002022,0.00704710,-0.00093633,-0.00587063,0.00002971,-0.00007634,
 -0.00007552,0.00000763,0.00001130,0.00001014,0.00009857,-0.00015270,0.
 00019564,0.00050375,-0.00114763,-0.00174642,0.00038197,0.00001343,-0.0
 0010726,0.00000404,-0.00001079,0.00000035,-0.00000836,0.00000422,-0.00
 000264,-0.21852771,0.02371541,0.13235178,-0.00495006,0.00080228,0.0026
 6342,-0.01915289,0.00150006,0.01498082,0.23456806,0.00003404,-0.000193
 08,0.00015914,0.00001246,0.00003477,0.00002489,0.01791654,-0.00320985,
 -0.01318066,-0.00007245,0.00007334,0.00008276,-0.00005256,0.00000713,0
 .00003006,-0.00003269,0.00012466,-0.00018589,0.00152586,0.00070001,-0.
 00024372,0.00107826,0.00046874,-0.00055342,-0.00000331,-0.00000081,0.0
 0001242,0.00000027,-0.00000706,0.00000140,0.02154176,-0.04922473,-0.01
 674541,-0.02457122,0.00418202,0.01741982,0.00890468,-0.00161826,-0.006
 82114,-0.02268472,0.05227171,-0.00021494,-0.00014447,0.00004362,-0.000
 00516,0.00005596,-0.00001796,0.01882389,-0.00245637,-0.01553036,-0.000
 02803,0.00009424,0.00019373,-0.00004682,-0.00003890,0.00005303,-0.0000
 5995,0.00010788,-0.00017915,0.00151063,0.00177542,0.00074304,0.0013093
 6,0.00020047,-0.00047802,-0.00002926,0.00001064,0.00001329,0.00000341,
 -0.00000705,0.00000666,0.12950671,-0.01792804,-0.14462392,0.00919948,-
 0.00132855,-0.00727950,-0.01537527,0.00146680,0.01232803,-0.14052619,0
 .02250999,0.15671897,0.00026342,-0.00419995,-0.00050311,-0.00030930,-0
 .00005064,0.00061392,0.00115199,-0.00384684,-0.00258993,-0.02305721,0.
 00198829,0.02322567,0.00004208,0.00233809,-0.00009433,-0.00027492,0.00
 035109,0.00028996,-0.00165014,-0.00027815,0.00060862,-0.14514996,0.005
 24980,0.06222552,0.00006965,-0.00005246,-0.00002222,-0.00000188,0.0000
 1880,-0.00002643,0.00075144,-0.00012530,-0.00059127,-0.00001808,-0.000
 00072,0.00002075,-0.00001896,-0.00001275,-0.00001019,-0.00002070,-0.00
 017545,-0.00029567,0.52530026,-0.00509961,0.00307353,-0.00453859,-0.00
 072975,0.00033853,0.00084383,-0.00342965,0.00044751,-0.00404629,-0.011
 01053,0.00657845,0.01025925,0.00078364,-0.00275328,0.00296560,0.000208
 98,0.00037932,-0.00033082,-0.00010138,-0.00040414,0.00074088,0.0090557
 1,-0.08115135,-0.02156747,-0.00006229,0.00001471,-0.00003772,0.0000086
 5,-0.00001236,0.00000707,0.00089931,0.00000633,-0.00054323,0.00000082,
 -0.00001628,0.00000668,-0.00001299,0.00005427,0.00004532,-0.00003404,-
 0.00029135,-0.00021849,0.02341066,0.56403738,-0.00029210,-0.00380751,0
 .00381647,-0.00029781,-0.00016330,0.00022023,-0.00112292,-0.00413119,-
 0.00011486,0.00640121,0.00156480,0.00239676,-0.00298575,0.00134837,-0.
 00061024,-0.00035655,0.00035014,-0.00018386,-0.00075462,-0.00023479,-0
 .00050814,0.06676871,-0.02005825,-0.14909461,-0.00006176,0.00002064,0.
 00000574,0.00001740,-0.00000501,0.00001472,0.00088436,0.00008357,-0.00
 043867,0.00000968,0.00004482,0.00007220,-0.00000558,0.00003635,0.00002
 153,-0.00010505,-0.00016359,-0.00025425,0.04202077,0.01475154,0.536659
 01,-0.00002754,-0.00114251,0.00104988,-0.00012155,-0.00002964,0.000118
 10,-0.00007913,-0.00041680,0.00029399,0.00015820,0.00186283,0.00186010
 ,-0.00023666,0.00057160,-0.00033520,-0.00071614,0.00047844,-0.00027378
 ,-0.00013650,-0.00001786,0.00001945,-0.02155522,0.00793631,-0.00502753
 ,-0.00004021,-0.00005070,0.00011969,0.00001379,-0.00002066,0.00003273,
 0.00000700,-0.00000383,-0.00006803,0.00000982,0.00004308,0.00002445,0.
 00002794,0.00001825,0.00003500,-0.00000704,0.00001550,-0.00000979,-0.2
 2210923,0.08822348,-0.09139388,0.24372071,-0.00005399,-0.00015663,0.00
 009282,-0.00000721,0.00001680,-0.00002723,-0.00058707,0.00011471,0.000
 25761,-0.00054147,-0.00060097,0.00023905,-0.00003181,0.00027850,-0.000
 10182,-0.00017307,-0.00005384,-0.00003677,0.00033957,0.00011887,-0.000
 03570,0.00167295,-0.00106146,0.00081280,0.00003156,-0.00003402,0.00004
 376,-0.00000214,0.00000783,0.00000910,-0.00002702,-0.00000171,0.000045
 45,0.00001337,-0.00003966,-0.00000694,-0.00000403,0.00000877,-0.000040
 66,-0.00001754,-0.00001122,0.00000660,0.08818395,-0.08857826,0.0420691
 0,-0.09643600,0.09201973,-0.00015405,0.00108281,-0.00080689,0.00009228
 ,0.00004439,-0.00008416,-0.00069225,0.00093761,0.00008829,0.00056746,-
 0.00100781,-0.00162072,0.00029133,-0.00009944,0.00021362,0.00048623,-0
 .00035778,0.00009037,0.00058023,0.00012120,-0.00012963,0.02147447,-0.0
 0999413,0.01111543,0.00001959,0.00004789,-0.00006613,-0.00000470,0.000
 01750,-0.00001032,-0.00003863,-0.00000312,0.00009321,-0.00000316,-0.00
 003564,-0.00002405,-0.00001391,-0.00000731,-0.00002729,-0.00000423,0.0
 0000014,0.00002405,-0.08924410,0.04207637,-0.09117803,0.09479584,-0.04
 755037,0.09770554,-0.00129424,0.00061345,-0.00065185,-0.00023552,0.000
 08559,0.00023194,-0.00061644,0.00026464,-0.00014062,-0.00070006,0.0009
 8204,0.00282627,0.00038404,-0.00046880,0.00044481,-0.00011413,0.000265
 26,-0.00023945,0.00004957,-0.00001186,0.00014062,-0.00976297,-0.020413
 48,0.01106246,-0.00005807,0.00000923,0.00001548,0.00001020,-0.00001153
 ,0.00001710,0.00002430,-0.00004370,-0.00002771,0.00002920,0.00003252,0
 .00002031,0.00001445,0.00002685,0.00002118,-0.00000161,-0.00001781,0.0
 0000776,-0.06215659,-0.06260201,0.02800567,0.00784496,0.02422688,-0.01
 110337,0.06956610,0.00013893,-0.00002565,0.00028777,0.00002747,-0.0000
 0697,-0.00003269,-0.00000217,-0.00019418,0.00058131,0.00095833,-0.0001
 4464,-0.00007966,0.00017579,0.00012073,0.00010078,0.00012793,-0.000045
 17,-0.00004113,0.00013627,0.00006490,-0.00013363,-0.00005975,0.0081950
 4,-0.00175035,-0.00001036,0.00002504,-0.00003876,0.00000152,0.00000192
 ,-0.00000748,-0.00003121,0.00000868,0.00000386,0.00000482,0.00001626,0
 .00000368,0.00000652,-0.00000159,0.00000874,-0.00000170,0.00000834,0.0
 0001996,-0.06108177,-0.24965100,0.09229006,-0.00353302,-0.01217560,0.0
 0481904,0.06671375,0.26893426,0.00065857,-0.00030368,0.00057170,0.0001
 8092,-0.00010349,-0.00017411,-0.00016061,-0.00036671,0.00080703,0.0001
 3503,-0.00111008,-0.00214055,-0.00001359,0.00033517,-0.00001672,0.0000
 1955,-0.00028926,0.00010625,0.00035523,0.00027777,-0.00030070,0.006307
 25,0.01903561,-0.00920807,0.00005169,-0.00001874,0.00002636,-0.0000104
 1,0.00000697,-0.00000468,-0.00007845,0.00007515,0.00004855,0.00000235,
 -0.00007341,-0.00002171,-0.00001713,-0.00001475,-0.00006815,-0.0000254
 7,0.00000822,0.00000292,0.02849609,0.09258439,-0.09144852,0.00331732,0
 .01235239,-0.00594396,-0.03469287,-0.10215268,0.09625495,0.00018738,0.
 00001998,-0.00009436,0.00003259,0.00002148,-0.00006242,0.00082638,0.00
 076047,0.00061038,0.00087833,0.00132846,0.00099939,-0.00055068,-0.0005
 5673,-0.00011038,0.00000798,-0.00000168,0.00001007,0.00005483,0.000010
 06,-0.00000691,0.00766490,0.01587152,0.01861204,0.00000213,-0.00000212
 ,0.00000112,-0.00000364,-0.00000694,-0.00000267,-0.00031201,0.00002986
 ,0.00016307,-0.00000264,0.00002178,-0.00000243,0.00000407,-0.00001432,
 0.00000813,0.00003738,0.00009331,0.00008890,-0.07958773,-0.05714718,-0
 .06723220,-0.00766907,-0.01779508,-0.01744693,-0.00360140,-0.00320764,
 -0.00577303,0.08605532,0.00028699,0.00005917,0.00006900,0.00002902,-0.
 00003177,-0.00001079,-0.00029813,0.00001793,-0.00024234,-0.00095553,0.
 00002233,0.00129942,0.00022968,0.00048500,-0.00001814,0.00006364,-0.00
 010012,0.00011545,-0.00005414,0.00005013,0.00008015,-0.00089584,-0.003
 20562,-0.00206321,0.00002125,-0.00001250,0.00000203,-0.00000515,0.0000
 0433,-0.00000570,0.00015997,-0.00004245,0.00001777,-0.00001857,-0.0000
 0362,-0.00000104,-0.00000434,0.00000856,0.00002765,0.00001607,-0.00002
 789,-0.00002080,-0.05541991,-0.14875854,-0.11770771,0.00393844,0.00930
 407,0.01070491,-0.00895528,-0.01505046,-0.02100626,0.06166930,0.156177
 25,0.00015583,0.00041763,-0.00009478,-0.00000231,-0.00003150,0.0000178
 2,-0.00090349,-0.00100831,-0.00037409,-0.00219065,-0.00078237,0.000952
 49,0.00108859,0.00075267,0.00034486,0.00035101,-0.00025454,0.00022209,
 -0.00004550,0.00006961,0.00017010,-0.00818196,-0.01352208,-0.01681074,
 0.00000903,0.00000901,-0.00003680,-0.00001150,0.00000084,-0.00001864,0
 .00036070,0.00009011,-0.00021498,-0.00001469,0.00000329,0.00002360,-0.
 00001962,-0.00000116,-0.00000078,-0.00001632,-0.00007733,-0.00011303,-
 0.06421383,-0.11637883,-0.18643863,-0.00344404,-0.00770776,-0.00900368
 ,0.00498621,0.00805326,0.01159866,0.06810019,0.12973497,0.20124959,-0.
 00032266,-0.00164601,0.00116131,-0.00018494,0.00010444,-0.00027150,-0.
 00054095,0.00024482,0.00017306,-0.00008140,-0.00048430,-0.00009131,-0.
 00002367,0.00000070,0.00007794,-0.01501754,0.01227525,-0.01378498,0.00
 073120,0.00062012,0.00004772,0.00012001,0.00019941,0.00008585,-0.31833
 159,-0.04651004,0.13390588,-0.01337325,-0.00739607,0.01398408,0.000080
 71,-0.00006160,0.00000630,-0.00002051,0.00000934,0.00000902,-0.0000129
 7,0.00000519,0.00001847,-0.00000820,0.00003141,0.00001673,-0.00002393,
 0.00000860,-0.00001675,0.00000362,-0.00000229,-0.00000442,0.00000531,-
 0.00000114,-0.00000137,0.00000395,-0.00000194,0.00000340,0.49716723,-0
 .00099395,0.00029314,-0.00032274,0.00023225,0.00001276,0.00000370,-0.0
 0035377,0.00006944,0.00036752,0.00060409,-0.00024988,-0.00009622,-0.00
 003246,0.00004775,0.00001191,-0.01140597,-0.01001743,0.03390375,0.0005
 2794,0.00015863,0.00048202,-0.00009877,-0.00052688,-0.00047682,-0.0646
 5779,-0.08567366,0.06008327,0.00774090,0.00596053,-0.00505880,-0.00000
 093,0.00005521,0.00003467,-0.00002399,-0.00003946,-0.00002011,-0.00002
 859,-0.00003357,-0.00003163,0.00002533,-0.00001217,-0.00002811,0.00000
 864,-0.00000112,-0.00009456,-0.00004226,0.00001750,0.00002121,-0.00003
 298,-0.00001041,0.00003420,0.00000396,0.00002730,0.00004442,0.03255914
 ,0.29565135,0.00104726,0.00032158,0.00037749,-0.00027552,-0.00020362,-
 0.00007358,0.00061196,-0.00012889,-0.00057410,-0.00072197,0.00032890,0
 .00025623,0.00001277,-0.00005019,-0.00000170,0.02467749,0.02748095,-0.
 03374838,-0.00068697,-0.00025353,-0.00117779,0.00003867,0.00071494,0.0
 0066994,0.15851670,0.05493721,-0.17313783,-0.00641860,-0.00111173,0.00
 737869,-0.00001402,-0.00011640,-0.00010527,0.00003815,0.00004731,0.000
 07715,0.00010491,0.00008578,0.00006518,-0.00006715,0.00007081,0.000046
 50,-0.00003680,0.00001908,0.00010060,0.00004093,-0.00003080,-0.0000193
 6,0.00004541,0.00001954,-0.00004641,0.00000005,-0.00003473,-0.00004546
 ,-0.15045746,-0.30352972,0.54445237,0.00032245,-0.00005663,0.00013806,
 0.00000045,-0.00010585,0.00009178,0.00026157,-0.00001852,-0.00019680,-
 0.00011318,0.00011700,-0.00006056,-0.00000794,-0.00001135,-0.00002866,
 -0.00656401,0.00286624,-0.00175541,-0.00026735,-0.00009165,-0.00015091
 ,0.00008684,0.00022260,0.00015526,0.00945942,-0.01336506,0.01593234,0.
 00016165,0.00002022,-0.00083390,-0.00000810,-0.00001573,-0.00000958,0.
 00001051,0.00000685,0.00000574,0.00001675,0.00001493,0.00000979,-0.000
 01180,0.00000397,0.00000572,0.00000766,-0.00000849,0.00002610,0.000027
 55,0.00000308,-0.00001637,0.00000839,-0.00000027,-0.00000566,-0.000001
 51,-0.00000773,-0.00001872,-0.05030155,-0.00562984,0.01459198,0.046206
 85,0.00001091,-0.00018186,0.00020627,0.00001570,0.00003183,-0.00002879
 ,-0.00001226,0.00002050,-0.00000930,0.00002805,-0.00003418,-0.00012554
 ,-0.00000208,0.00000703,-0.00001677,-0.00042366,0.00140185,0.00138807,
 0.00003161,0.00022803,0.00011553,-0.00003718,-0.00013263,-0.00000794,0
 .00265081,-0.00177444,-0.00059415,-0.00070551,-0.00220138,-0.00148080,
 0.00000304,0.00000305,0.00001239,-0.00000367,-0.00000321,-0.00001339,-
 0.00001951,-0.00001150,-0.00000472,0.00001205,-0.00000806,0.00000214,-
 0.00001883,0.00000065,-0.00001523,-0.00000405,0.00001201,0.00000943,-0
 .00000176,-0.00000154,0.00000960,-0.00000232,0.00000182,-0.00000168,-0
 .00883132,-0.13602842,0.15982217,0.00740802,0.13770406,0.00005466,-0.0
 0019148,0.00024792,-0.00001547,0.00001120,0.00000156,0.00009098,-0.000
 01618,-0.00008071,0.00002714,0.00014892,-0.00016661,0.00000420,-0.0000
 0852,-0.00000810,0.00176318,0.00112808,0.00035454,-0.00008164,0.000113
 11,0.00002780,-0.00010402,-0.00003515,0.00002180,-0.00619906,0.0041736
 7,-0.00584391,0.00006780,-0.00171962,-0.00106294,-0.00000621,-0.000007
 61,-0.00000589,0.00000449,0.00000581,0.00000016,0.00000206,0.00000114,
 0.00000303,-0.00000129,-0.00000081,0.00000391,-0.00001239,0.00000538,0
 .00000767,-0.00000026,0.00000074,0.00000732,0.00000499,0.00000242,-0.0
 0000275,-0.00000305,-0.00000316,-0.00000655,0.01816002,0.15887204,-0.2
 4650257,-0.01710630,-0.16676489,0.25358537,0.00158385,0.00155252,-0.00
 050616,-0.00009153,-0.00065250,0.00048248,0.00096349,0.00011231,-0.000
 51139,-0.00088325,-0.00016990,0.00054154,-0.00003430,-0.00002247,-0.00
 011834,-0.03059419,-0.00788047,0.00915318,-0.00110844,-0.00128447,-0.0
 0048921,0.00076078,0.00128702,0.00040807,-0.06436276,-0.00514163,0.026
 03746,-0.00128827,-0.00138808,0.00384774,-0.00007013,0.00003723,-0.000
 00547,0.00002743,-0.00000458,-0.00001613,0.00000959,0.00002238,0.00003
 059,0.00002540,-0.00003896,0.00000206,-0.00001766,-0.00005930,0.000074
 34,0.00016758,0.00001797,-0.00009204,0.00003258,-0.00003808,0.00000417
 ,0.00001077,-0.00000725,-0.00005863,-0.11547697,0.03908234,-0.03404440
 ,0.00082282,-0.00148459,0.00133094,0.28011776,-0.00172612,-0.00170303,
 0.00053846,0.00019110,0.00012060,0.00020728,-0.00166231,0.00003701,0.0
 0083387,0.00036827,-0.00108933,0.00046985,-0.00003375,0.00005009,0.000
 04710,-0.02232612,-0.04501199,0.02049050,0.00133109,0.00048154,0.00109
 760,0.00048881,0.00008397,-0.00042109,0.02192796,0.00309476,0.00352914
 ,0.00075634,0.00492939,0.00255345,0.00005291,0.00011201,0.00002925,-0.
 00002855,-0.00001605,-0.00002982,-0.00006526,-0.00006726,-0.00004821,0
 .00004388,-0.00003103,-0.00004116,-0.00001976,-0.00000109,-0.00003579,
 -0.00002187,-0.00000589,0.00002522,-0.00001626,-0.00001545,0.00001743,
 0.00000486,0.00002800,0.00003648,0.04810867,-0.05648640,0.02098756,0.0
 1110872,-0.00450803,-0.00034313,-0.04058614,0.09039489,0.00181163,0.00
 219404,-0.00150675,-0.00048696,0.00020382,-0.00036166,0.00099094,-0.00
 056349,-0.00065296,-0.00105022,0.00112644,-0.00034258,0.00003795,-0.00
 004940,-0.00011247,0.03330643,0.01654201,-0.06344267,-0.00142332,-0.00
 014660,-0.00126949,-0.00027245,0.00000221,0.00081575,-0.01336773,0.009
 70363,-0.00061152,0.00112786,0.00363306,0.00270778,-0.00005206,-0.0000
 9404,-0.00004927,0.00003247,0.00002932,0.00003058,0.00006994,0.0000541
 4,0.00000399,-0.00007069,0.00005412,0.00003722,0.00001310,-0.00000511,
 0.00009910,0.00000183,-0.00000424,-0.00000459,0.00001800,0.00002760,-0
 .00003416,-0.00001145,-0.00003722,-0.00006585,-0.04497366,0.02310186,-
 0.05285478,-0.01623474,0.00309565,-0.00233023,-0.00414232,-0.06293864,
 0.12411500,-0.00163826,0.01544365,-0.00980488,0.00026988,-0.00078294,0
 .00074538,0.00364578,-0.00137983,-0.00145544,-0.00717507,0.00181212,0.
 00340332,-0.00007812,-0.00005958,-0.00061309,-0.45671609,0.08870700,-0
 .03843924,-0.00460533,-0.00396238,-0.00535518,0.00099696,0.00064220,0.
 00282733,-0.07260896,0.00749114,-0.00653682,0.00049943,0.01798754,-0.0
 2438324,-0.00007887,0.00000021,-0.00009430,0.00012552,0.00006631,0.000
 10513,0.00026024,0.00036206,0.00022667,-0.00008478,0.00002030,0.000038
 97,-0.00008356,0.00009985,0.00007422,0.00067004,0.00021833,-0.00043190
 ,0.00020347,-0.00010883,-0.00003626,-0.00002150,-0.00004602,-0.0002210
 4,0.01559520,0.00248815,-0.00679461,-0.00013716,0.00136736,0.00202471,
 -0.07047808,-0.01805134,0.04448496,0.59060242,0.00336358,-0.00349736,0
 .00079426,0.00044601,-0.00088738,0.00060006,-0.00123542,0.00026506,0.0
 0090478,0.00111325,-0.00120936,-0.00109309,-0.00001307,0.00004013,0.00
 027403,0.10395761,-0.08410616,0.01660037,0.00115664,0.00106739,0.00176
 455,0.00081674,-0.00030397,-0.00033942,0.01772452,-0.12555794,0.083340
 03,0.00055908,-0.00770926,0.00887400,-0.00005589,0.00018625,0.00012415
 ,-0.00004796,-0.00011508,-0.00006110,-0.00007898,-0.00001327,-0.000066
 17,0.00007773,-0.00003701,-0.00003871,0.00012414,-0.00005183,-0.000197
 91,-0.00011347,-0.00001989,-0.00005401,-0.00009712,0.00001901,0.000062
 35,0.00004510,0.00002724,0.00014497,-0.02925414,-0.01333843,0.04045065
 ,-0.00250862,0.00536973,0.00458307,0.01693417,0.01038167,0.00360231,-0
 .11337016,0.21992223,-0.00328135,0.00251994,-0.00350227,-0.00064964,0.
 00098590,-0.00064185,0.00058060,-0.00047756,-0.00018390,-0.00278091,0.
 00045436,0.00112819,0.00014127,-0.00002006,-0.00006945,-0.05465937,0.0
 1647282,-0.05964050,-0.00085217,-0.00114891,-0.00091631,0.00026517,0.0
 0057941,0.00066637,-0.02264627,0.08534240,-0.17108183,-0.00140166,0.00
 396160,-0.00778519,-0.00001884,0.00000111,-0.00004222,0.00004319,0.000
 03452,0.00005801,0.00010700,0.00011650,0.00006089,-0.00005248,0.000035
 17,0.00002793,-0.00005095,0.00003812,0.00009472,-0.00014163,-0.0001022
 0,0.00007234,0.00000684,0.00007015,-0.00002793,0.00000144,-0.00004481,
 0.00004956,0.04218373,0.03259357,-0.04522638,0.00547524,0.00430081,0.0
 0168215,-0.00167107,0.01372112,-0.00447452,0.03950425,-0.15947071,0.28
 997143,-0.00265223,0.01819300,0.00690008,0.00049486,-0.00064035,0.0009
 6052,-0.17089149,0.02830304,0.11270878,-0.00017996,-0.02159518,-0.0273
 0702,-0.00303861,-0.00407905,0.00160359,0.00608428,-0.00752330,0.00688
 339,-0.05127398,-0.01840744,0.01272581,-0.10811447,-0.04155694,-0.0287
 8373,0.00067451,-0.00021070,-0.00031085,-0.00022614,0.00028678,-0.0002
 7526,0.00621289,0.00346521,0.00236419,-0.00020147,-0.00454191,-0.00091
 043,-0.00146162,-0.00057707,-0.00358071,-0.00140729,-0.00255943,-0.001
 85857,0.00757947,0.01407379,0.01727595,-0.00154153,0.00224446,0.001779
 61,-0.00053757,-0.00089284,0.00346678,-0.00453402,-0.00023836,0.003693
 80,0.00013765,0.00081462,-0.00133364,-0.00033304,0.00004419,-0.0001227
 5,-0.00087947,0.00145344,-0.00121886,-0.00400044,0.00176702,-0.0011759
 2,0.60224784,0.00838672,-0.00943655,-0.02234411,0.00071226,-0.00109852
 ,-0.00018179,-0.01465838,-0.09958007,-0.03967411,-0.04600152,-0.022325
 58,-0.00019204,-0.00350992,0.00421846,-0.00217290,0.00265932,-0.003290
 48,0.00330371,0.01075561,0.02338999,0.02344971,-0.00143665,-0.14478771
 ,-0.11077446,0.00057534,-0.00002395,0.00020919,-0.00011310,0.00018702,
 -0.00010505,0.01194435,-0.00272341,-0.01688022,0.00120416,-0.00111576,
 -0.00132041,-0.00030393,0.00009867,-0.00245145,-0.00199757,-0.00261953
 ,-0.00335442,0.00417791,-0.00071804,-0.00896676,-0.00203381,0.00084460
 ,-0.00041755,-0.00106336,-0.00018478,0.00127259,-0.00065587,0.00068395
 ,-0.00002584,-0.00007276,0.00055813,-0.00079488,-0.00012833,0.00010567
 ,-0.00002863,-0.00047981,0.00016610,-0.00043125,-0.00152806,0.00035890
 ,-0.00083971,0.15017321,0.37555874,0.01172361,-0.01800876,-0.04130520,
 0.00042827,-0.00059710,-0.00125708,0.05291719,-0.06964031,-0.19325021,
 -0.06474095,-0.01992148,0.02098097,0.00274347,-0.00171646,0.00281624,-
 0.00002475,-0.00145345,0.00155358,0.05045294,0.04295316,0.02480774,0.0
 2741119,-0.08190309,-0.20663570,-0.00018023,0.00030874,-0.00026348,0.0
 0001080,0.00005914,0.00000392,0.01392856,-0.00976139,-0.02169846,0.001
 25581,0.00015588,0.00000510,0.00199344,-0.00015731,-0.00025858,-0.0012
 9627,-0.00303506,-0.00212324,0.00365840,-0.01705517,-0.02085951,-0.000
 71611,-0.00098130,-0.00068038,-0.00114136,-0.00155006,-0.00032713,0.00
 294372,-0.00043456,-0.00187860,-0.00028084,0.00014738,-0.00002868,0.00
 000227,0.00011322,0.00008016,-0.00022202,-0.00070784,0.00022177,0.0006
 5525,-0.00082461,-0.00042893,-0.09983027,0.22085956,0.52978472,-0.0033
 5044,-0.00243648,0.00118213,0.00001486,0.00076321,-0.00047542,-0.04561
 304,-0.02185065,0.00543740,0.00528447,0.00210461,0.00096843,-0.0002119
 9,-0.00026218,0.00000363,-0.00582451,0.00337650,-0.00512537,0.00322489
 ,0.00295375,0.00470597,-0.02117208,-0.01959909,-0.01117088,-0.00063247
 ,0.00013847,0.00060631,0.00026563,-0.00030742,0.00030554,0.00136047,-0
 .00177612,-0.00583202,0.00036169,0.00210230,0.00069085,0.00120262,0.00
 064047,0.00226336,0.00066235,-0.00056447,-0.00057754,-0.00045460,0.002
 80322,0.00255916,0.00147695,-0.00100643,-0.00080269,0.00082588,0.00045
 979,-0.00200986,0.00036229,0.00039571,0.00050785,-0.00010450,-0.000863
 17,0.00133895,0.00038426,-0.00002424,0.00014073,0.00074491,-0.00144553
 ,0.00160719,0.00539240,-0.00162927,0.00127159,-0.26215154,-0.08545316,
 0.03640010,0.36034703,-0.00168187,-0.00126429,0.00281960,0.00007859,0.
 00019437,0.00016694,-0.00579301,0.00612669,0.00069982,0.00425717,0.002
 93933,-0.00572609,-0.00112542,-0.00048421,-0.00006866,-0.00291090,0.00
 172755,-0.00280835,-0.00081536,0.00315733,-0.00515266,-0.03808693,-0.0
 1876285,-0.00947637,-0.00030507,0.00011171,0.00024524,0.00013747,-0.00
 012297,0.00014203,0.00511068,-0.00388031,-0.00122373,-0.00040247,0.002
 64904,0.00113223,0.00037481,0.00043753,0.00160804,0.00027682,0.0006527
 3,-0.00051591,-0.00078871,-0.00222609,0.00245832,0.00075355,-0.0001767
 1,-0.00052561,0.00057026,0.00023532,-0.00046797,-0.00046545,0.00018092
 ,0.00039848,-0.00000640,-0.00049794,0.00079182,0.00021069,-0.00001856,
 0.00007905,0.00028618,-0.00077464,0.00093944,0.00248186,-0.00089146,0.
 00069853,-0.10979238,-0.10375160,-0.01594366,0.16744108,0.27889814,-0.
 00106473,0.00133517,0.00202918,-0.00015752,0.00039843,0.00010847,0.028
 94085,0.01254574,0.00528857,0.00518208,-0.00380075,-0.00500229,-0.0013
 8793,-0.00079030,0.00011946,-0.00042832,0.00046287,-0.00044204,0.00070
 048,-0.00700173,-0.00341712,-0.03588188,-0.02135632,0.00065825,-0.0000
 7198,-0.00003325,0.00006003,0.00001923,-0.00006216,0.00001590,0.002802
 43,0.00232954,-0.00258715,-0.00052519,0.00084833,0.00053490,-0.0001298
 6,0.00010808,0.00175229,0.00035579,0.00014810,0.00054874,-0.00317617,-
 0.00004285,-0.00198272,-0.00016728,0.00067543,0.00026506,0.00008186,-0
 .00045466,0.00006087,-0.00073996,-0.00032950,0.00038397,0.00000668,-0.
 00006127,0.00013596,0.00002330,-0.00002626,-0.00000274,0.00006862,-0.0
 0010247,0.00010825,0.00042109,0.00002609,0.00019620,-0.00343649,-0.035
 55096,-0.09023032,0.01010206,0.27158766,0.44525802,0.00000340,0.000392
 02,0.00030756,0.00001015,0.00008117,0.00009912,-0.00010677,-0.00087758
 ,-0.00135435,0.00102047,-0.00104945,-0.00113634,-0.00045687,-0.0000966
 6,-0.00002624,0.00028267,-0.00029810,0.00031667,-0.00037914,-0.0005771
 8,-0.00066910,-0.00639388,-0.00295906,0.00195529,0.00010480,-0.0000515
 0,0.00000189,-0.00002336,0.00002844,-0.00002074,0.00065463,-0.00088029
 ,0.00074690,-0.00091194,0.00213307,0.00076705,-0.00011587,-0.00004031,
 0.00101760,0.00049420,0.00061034,-0.00041400,-0.00022002,0.00040917,0.
 00061510,0.00013396,-0.00022652,-0.00004761,0.00003808,0.00023666,-0.0
 0012672,0.00016447,0.00009164,0.00004168,0.00002259,0.00005725,-0.0000
 6895,-0.00001708,0.00000255,-0.00001130,-0.00006601,0.00006613,-0.0000
 5840,-0.00032809,0.00016502,-0.00007228,-0.00816238,-0.02618675,-0.037
 31951,-0.04091536,-0.01994118,-0.00271484,0.05499151,0.00025373,0.0004
 8436,-0.00004798,-0.00000578,-0.00008603,0.00006422,0.00301219,0.00108
 008,-0.00004360,-0.00034988,-0.00000937,-0.00153614,-0.00019055,-0.000
 25919,0.00019934,0.00023497,-0.00023938,0.00042691,-0.00015960,-0.0010
 4996,-0.00039458,-0.00348949,0.00147615,0.00094547,0.00001807,-0.00004
 909,0.00001886,-0.00001664,-0.00001833,-0.00001775,-0.00072090,0.00308
 378,-0.00044580,0.00111423,-0.00193860,-0.00046908,0.00031127,0.000353
 72,0.00088801,0.00034570,-0.00099110,0.00049587,-0.00003289,0.00001099
 ,0.00032102,-0.00003710,0.00013205,0.00018431,-0.00001905,-0.00016622,
 -0.00018624,0.00001670,0.00010902,-0.00001867,-0.00000985,0.00008659,-
 0.00011157,-0.00003167,-0.00000197,-0.00001563,0.00002343,0.00011131,-
 0.00018094,-0.00009402,0.00024386,-0.00006770,-0.00415740,-0.01674499,
 -0.01769614,-0.04504255,-0.16447516,-0.22161250,0.04884367,0.17863973,
 0.00029374,0.00037185,-0.00034226,-0.00003523,-0.00010593,0.00000842,0
 .00412568,0.00242916,0.00057101,-0.00031183,-0.00107658,0.00021571,-0.
 00011571,0.00014601,0.00000644,0.00068901,-0.00041343,0.00056809,-0.00
 007281,-0.00048505,-0.00069749,0.00165929,0.00079518,0.00244828,0.0000
 3922,0.00000489,-0.00007026,-0.00002765,0.00004622,-0.00002138,0.00071
 655,-0.00035384,0.00285767,0.00089903,-0.00048367,-0.00004091,0.000017
 71,0.00056196,-0.00298977,-0.00066391,0.00040792,-0.00062471,-0.000174
 72,0.00004313,-0.00019173,-0.00013071,0.00004756,-0.00011315,-0.000038
 29,-0.00004599,0.00032857,-0.00003247,-0.00007514,0.00005483,0.0000161
 5,0.00007698,-0.00016376,-0.00003988,0.00001337,-0.00000930,-0.0000806
 9,0.00016384,-0.00017486,-0.00055554,0.00012517,-0.00016168,-0.0006791
 9,0.00027861,-0.00189653,-0.04388718,-0.24190870,-0.35402958,0.0381653
 9,0.23929387,0.35436640,0.00713385,-0.00113627,-0.00570952,0.00031289,
 0.00131482,-0.00043031,-0.01485818,0.00553743,0.02050973,0.00144954,-0
 .00238332,-0.00017488,0.00026508,-0.00021885,-0.00026978,0.00028048,-0
 .00075150,0.00052413,-0.18731815,0.02406527,0.14045782,-0.00026813,-0.
 00015349,-0.00064740,0.00002324,0.00000266,0.00001583,-0.00000508,0.00
 001779,-0.00000553,-0.00026028,0.00264113,0.00019425,0.00044022,0.0002
 1889,-0.00005113,-0.00000459,-0.00031397,-0.00021566,0.00008528,-0.001
 01563,-0.00107243,-0.00001149,0.00031136,-0.00010770,-0.00002231,-0.00
 004046,0.00001331,0.00004208,-0.00001901,-0.00004351,-0.00000860,0.000
 00647,0.00004401,-0.00004285,0.00001987,-0.00014514,-0.00001448,-0.000
 00331,-0.00001216,0.00008409,0.00008081,-0.00013945,-0.00022700,0.0001
 5350,-0.00012575,-0.00184424,-0.00496588,-0.00077269,-0.00148020,0.000
 13598,0.00117767,0.00017582,0.00018340,0.00022403,0.19607303,0.0165954
 0,-0.00073974,-0.01513583,0.00035723,-0.00132912,0.00136585,-0.0106260
 4,0.00546425,0.00974992,-0.00314276,-0.00044798,-0.00412677,0.00067995
 ,0.00030063,-0.00104147,-0.00021622,0.00122764,-0.00083656,0.02457929,
 -0.05247056,-0.04166976,-0.00039787,-0.00089156,0.00017646,-0.00012195
 ,0.00000593,-0.00006904,-0.00001793,-0.00003881,0.00000680,0.00046012,
 -0.00191517,0.00318482,-0.00034300,-0.00025949,-0.00031083,0.00044451,
 0.00036463,0.00014918,-0.00008952,-0.00024031,-0.00062497,0.00025278,-
 0.00032694,0.00024289,0.00006211,0.00004042,-0.00003926,-0.00003547,0.
 00004416,0.00002143,-0.00004153,0.00004596,0.00005436,0.00011076,-0.00
 002256,0.00028776,-0.00000259,0.00001957,0.00001018,-0.00011733,-0.000
 28114,0.00014130,0.00019506,-0.00014305,0.00024560,-0.00404641,0.00223
 075,-0.00320931,-0.00091836,0.00001610,0.00075954,0.00006744,0.0002177
 5,0.00014260,-0.02368767,0.04912865,0.01589248,-0.00110471,-0.01125222
 ,-0.00077536,0.00158685,-0.00040756,-0.00194954,-0.00152462,0.00296969
 ,-0.00077038,-0.00528530,-0.00036887,0.00092239,-0.00027400,-0.0006052
 9,-0.00014191,0.00042596,-0.00059558,0.14275450,-0.04374505,-0.1893174
 8,-0.00073786,0.00016527,-0.00024096,-0.00010839,0.00005553,-0.0000684
 6,-0.00000003,-0.00002299,0.00000800,-0.00210290,0.00187652,-0.0008288
 0,0.00019089,0.00028039,0.00032369,-0.00034497,-0.00026236,-0.00006998
 ,-0.00000771,0.00004207,0.00043251,-0.00013070,0.00037794,-0.00020499,
 -0.00000105,-0.00002660,0.00003711,0.00009860,-0.00000105,-0.00004032,
 -0.00002025,-0.00001624,0.00003504,0.00002598,-0.00005852,0.00014596,-
 0.00000009,0.00000080,-0.00000108,-0.00002329,-0.00008001,0.00014891,0
 .00021026,-0.00012512,0.00017520,0.00046118,-0.00286681,0.00286782,-0.
 00021025,0.00005051,0.00016982,0.00000612,0.00000645,0.00010195,-0.153
 23774,0.05052511,0.19658589\\0.00000111,0.00000758,-0.00000430,0.00000
 131,0.00000015,0.00000022,0.00000250,0.00000050,-0.00000074,-0.0000042
 9,0.00000078,0.00000359,0.00000037,-0.00000018,0.00000016,0.00000063,-
 0.00000264,0.00000108,-0.00000218,-0.00000458,-0.00000412,0.00000172,0
 .00000098,0.00000100,-0.00000015,-0.00000032,0.00000059,-0.00000014,-0
 .00000018,0.00000020,-0.00000004,0.00000006,0.,0.00000004,-0.00000005,
 0.00000002,-0.00000033,-0.00000009,0.00000023,-0.00000024,0.00000011,-
 0.00000019,0.00000044,0.00000003,0.00000019,0.00000024,0.00000005,0.00
 000023,0.00000025,0.,0.00000012,0.00000037,-0.00000004,0.00000018,0.00
 000006,-0.00000057,0.00000038,-0.00000022,-0.00000015,-0.00000013,-0.0
 0000049,-0.00000023,0.00000062,0.00000088,-0.00000031,0.00000040,-0.00
 000075,-0.00000016,0.00000013,-0.00000122,-0.00000052,0.,0.00000008,-0
 .00000003,0.00000039,0.00000004,-0.00000017,-0.00000025\\\@
 The archive entry for this job was punched.


 TIME GOES, YOU SAY?  AH NO!
 ALAS, TIME STAYS, WE GO.
    -- A. DOBSON (1840-1921)
 Job cpu time:       0 days  0 hours 34 minutes 24.0 seconds.
 Elapsed time:       0 days  0 hours  2 minutes 10.3 seconds.
 File lengths (MBytes):  RWF=    437 Int=      0 D2E=      0 Chk=     10 Scr=      1
 Normal termination of Gaussian 16 at Tue May  5 15:33:58 2026.
6993.83user 19.46system 7:45.34elapsed 1507%CPU (0avgtext+0avgdata 13907468maxresident)k
24inputs+3189680outputs (2949major+628215minor)pagefaults 0swaps
